"NodalForces:0","NodalForces:1","damage","displacement:0","displacement:1","epsilon_xx","epsilon_xy","epsilon_yy","epsilon_zz","sigma_xx","sigma_xy","sigma_yy","sigma_zz","vtkValidPointMask","Time","Point Coordinates:0","Point Coordinates:1","Point Coordinates:2"
0,0,0,0,0,0,0,0,0,0,0,0,0,1,0,1,0.05,0
0.00029171,1.07e-05,1.5128e-12,1e-06,0,1.0043e-06,2.8449e-08,1.2077e-22,0,0.023248,0.00044703,0.00092968,0.00092968,1,0.001,1,0.05,0
0.00058342,2.1401e-05,1.4302e-11,2e-06,0,2.0087e-06,5.6903e-08,2.3161e-22,0,0.046497,0.00089413,0.0018594,0.0018594,1,0.002,1,0.05,0
0.00087513,3.2101e-05,8.6959e-11,3e-06,0,3.013e-06,8.5353e-08,3.6396e-22,0,0.069744,0.0013412,0.0027891,0.0027891,1,0.003,1,0.05,0
0.0011668,4.2801e-05,3.0027e-10,4e-06,0,4.0173e-06,1.138e-07,4.7646e-22,0,0.092992,0.0017882,0.0037187,0.0037187,1,0.004,1,0.05,0
0.0014585,5.3502e-05,7.7236e-10,5e-06,0,5.0217e-06,1.4226e-07,5.691e-22,0,0.11624,0.0022353,0.0046484,0.0046484,1,0.005,1,0.05,0
0.0017503,6.4202e-05,1.6576e-09,6e-06,0,6.026e-06,1.7071e-07,7.1468e-22,0,0.13949,0.0026824,0.0055781,0.0055781,1,0.006,1,0.05,0
0.002042,7.4902e-05,3.1469e-09,7e-06,0,7.0303e-06,1.9916e-07,8.338e-22,0,0.16274,0.0031294,0.0065078,0.0065078,1,0.007,1,0.05,0
0.0023337,8.5603e-05,5.4671e-09,8e-06,0,8.0347e-06,2.2761e-07,9.6615e-22,0,0.18598,0.0035765,0.0074375,0.0074375,1,0.008,1,0.05,0
0.0026254,9.6303e-05,8.8817e-09,9e-06,0,9.039e-06,2.5606e-07,1.0588e-21,0,0.20923,0.0040236,0.0083671,0.0083671,1,0.009,1,0.05,0
0.0029171,0.000107,1.369e-08,1e-05,0,1.0043e-05,2.8451e-07,1.2044e-21,0,0.23248,0.0044706,0.0092969,0.0092969,1,0.01,1,0.05,0
0.0032088,0.0001177,2.0229e-08,1.1e-05,0,1.1048e-05,3.1296e-07,1.297e-21,0,0.25573,0.0049177,0.010227,0.010227,1,0.011,1,0.05,0
0.0035005,0.0001284,2.887e-08,1.2e-05,0,1.2052e-05,3.4141e-07,1.4294e-21,0,0.27898,0.0053648,0.011156,0.011156,1,0.012,1,0.05,0
0.0037922,0.0001391,4.0021e-08,1.3e-05,0,1.3056e-05,3.6987e-07,1.5088e-21,0,0.30223,0.0058118,0.012086,0.012086,1,0.013,1,0.05,0
0.004084,0.00014981,5.4128e-08,1.4e-05,0,1.4061e-05,3.9832e-07,1.6147e-21,0,0.32548,0.0062589,0.013016,0.013016,1,0.014,1,0.05,0
0.0043757,0.00016051,7.1672e-08,1.5e-05,0,1.5065e-05,4.2677e-07,1.7735e-21,0,0.34872,0.0067059,0.013945,0.013945,1,0.015,1,0.05,0
0.0046674,0.00017121,9.3171e-08,1.6e-05,0,1.607e-05,4.5522e-07,1.8529e-21,0,0.37197,0.007153,0.014875,0.014875,1,0.016,1,0.05,0
0.0049591,0.00018191,1.1918e-07,1.7e-05,0,1.7074e-05,4.8367e-07,2.0382e-21,0,0.39522,0.0076001,0.015805,0.015805,1,0.017,1,0.05,0
0.0052508,0.00019261,1.5028e-07,1.8e-05,0,1.8078e-05,5.1212e-07,2.1441e-21,0,0.41847,0.0080472,0.016734,0.016734,1,0.018,1,0.05,0
0.0055425,0.00020331,1.8711e-07,1.9e-05,0,1.9083e-05,5.4057e-07,2.2499e-21,0,0.44172,0.0084942,0.017664,0.017664,1,0.019,1,0.05,0
0.0058343,0.00021401,2.3033e-07,2e-05,0,2.0087e-05,5.6903e-07,2.3558e-21,0,0.46497,0.0089413,0.018594,0.018594,1,0.02,1,0.05,0
0.006126,0.00022471,2.8063e-07,2.1e-05,0,2.1091e-05,5.9748e-07,2.3823e-21,0,0.48822,0.0093883,0.019524,0.019524,1,0.021,1,0.05,0
0.0064177,0.00023541,3.3876e-07,2.2e-05,0,2.2096e-05,6.2593e-07,2.594e-21,0,0.51146,0.0098354,0.020453,0.020453,1,0.022,1,0.05,0
0.0067094,0.00024611,4.0548e-07,2.3e-05,0,2.31e-05,6.5438e-07,2.6999e-21,0,0.53471,0.010282,0.021383,0.021383,1,0.023,1,0.05,0
0.0070012,0.00025681,4.816e-07,2.4e-05,0,2.4105e-05,6.8283e-07,2.8587e-21,0,0.55796,0.01073,0.022313,0.022313,1,0.024,1,0.05,0
0.0072929,0.00026751,5.6797e-07,2.5e-05,0,2.5109e-05,7.1128e-07,2.9646e-21,0,0.58121,0.011177,0.023242,0.023242,1,0.025,1,0.05,0
0.0075846,0.00027821,6.6546e-07,2.6e-05,0,2.6113e-05,7.3973e-07,3.0705e-21,0,0.60446,0.011624,0.024172,0.024172,1,0.026,1,0.05,0
0.0078763,0.00028891,7.75e-07,2.7e-05,0,2.7118e-05,7.6819e-07,3.1764e-21,0,0.62771,0.012071,0.025102,0.025102,1,0.027,1,0.05,0
0.008168,0.00029961,8.9752e-07,2.8e-05,0,2.8122e-05,7.9664e-07,3.2823e-21,0,0.65096,0.012518,0.026032,0.026032,1,0.028,1,0.05,0
0.0084598,0.00031031,1.034e-06,2.9e-05,0,2.9127e-05,8.2509e-07,3.4411e-21,0,0.67421,0.012965,0.026961,0.026961,1,0.029,1,0.05,0
0.0087515,0.00032102,1.1856e-06,3e-05,0,3.0131e-05,8.5354e-07,3.5999e-21,0,0.69746,0.013412,0.027891,0.027891,1,0.03,1,0.05,0
0.0090432,0.00033172,1.3532e-06,3.1e-05,0,3.1135e-05,8.8199e-07,3.5999e-21,0,0.72071,0.013859,0.028821,0.028821,1,0.031,1,0.05,0
0.0093349,0.00034242,1.538e-06,3.2e-05,0,3.214e-05,9.1045e-07,3.7058e-21,0,0.74396,0.014306,0.029751,0.029751,1,0.032,1,0.05,0
0.0096267,0.00035312,1.7411e-06,3.3e-05,0,3.3144e-05,9.389e-07,3.9175e-21,0,0.76721,0.014753,0.03068,0.03068,1,0.033,1,0.05,0
0.0099184,0.00036382,1.9636e-06,3.4e-05,0,3.4149e-05,9.6735e-07,4.0763e-21,0,0.79046,0.0152,0.03161,0.03161,1,0.034,1,0.05,0
0.01021,0.00037452,2.2069e-06,3.5e-05,0,3.5153e-05,9.958e-07,4.1293e-21,0,0.8137,0.015647,0.03254,0.03254,1,0.035,1,0.05,0
0.010502,0.00038522,2.4721e-06,3.6e-05,0,3.6158e-05,1.0243e-06,4.341e-21,0,0.83695,0.016094,0.033469,0.033469,1,0.036,1,0.05,0
0.010794,0.00039592,2.7605e-06,3.7e-05,0,3.7162e-05,1.0527e-06,4.2881e-21,0,0.8602,0.016541,0.034399,0.034399,1,0.037,1,0.05,0
0.011085,0.00040662,3.0734e-06,3.8e-05,0,3.8167e-05,1.0812e-06,4.394e-21,0,0.88345,0.016988,0.035329,0.035329,1,0.038,1,0.05,0
0.011377,0.00041732,3.4122e-06,3.9e-05,0,3.9171e-05,1.1096e-06,4.4469e-21,0,0.9067,0.017435,0.036259,0.036259,1,0.039,1,0.05,0
0.011669,0.00042802,3.7782e-06,4e-05,0,4.0176e-05,1.1381e-06,4.6587e-21,0,0.92995,0.017882,0.037188,0.037188,1,0.04,1,0.05,0
0.01196,0.00043872,4.173e-06,4.1e-05,0,4.118e-05,1.1665e-06,4.7116e-21,0,0.95319,0.018329,0.038118,0.038118,1,0.041,1,0.05,0
0.012252,0.00044942,4.5979e-06,4.2e-05,0,4.2185e-05,1.195e-06,4.7646e-21,0,0.97644,0.018776,0.039048,0.039048,1,0.042,1,0.05,0
0.012544,0.00046012,5.0545e-06,4.3e-05,0,4.319e-05,1.2234e-06,5.0822e-21,0,0.99969,0.019223,0.039977,0.039977,1,0.043,1,0.05,0
0.012836,0.00047081,5.5443e-06,4.4e-05,0,4.4194e-05,1.2519e-06,5.1881e-21,0,1.0229,0.01967,0.040907,0.040907,1,0.044,1,0.05,0
0.013127,0.00048151,6.0688e-06,4.5e-05,0,4.5199e-05,1.2803e-06,5.3998e-21,0,1.0462,0.020117,0.041836,0.041836,1,0.045,1,0.05,0
0.013419,0.00049221,6.6297e-06,4.6e-05,0,4.6203e-05,1.3088e-06,5.294e-21,0,1.0694,0.020564,0.042766,0.042766,1,0.046,1,0.05,0
0.013711,0.00050291,7.2286e-06,4.7e-05,0,4.7208e-05,1.3372e-06,5.7175e-21,0,1.0927,0.021011,0.043696,0.043696,1,0.047,1,0.05,0
0.014002,0.00051361,7.8672e-06,4.8e-05,0,4.8213e-05,1.3657e-06,5.7175e-21,0,1.1159,0.021458,0.044625,0.044625,1,0.048,1,0.05,0
0.014294,0.0005243,8.5472e-06,4.9e-05,0,4.9217e-05,1.3941e-06,5.8234e-21,0,1.1392,0.021905,0.045555,0.045555,1,0.049,1,0.05,0
0.014586,0.000535,9.2704e-06,5e-05,0,5.0222e-05,1.4226e-06,5.8234e-21,0,1.1624,0.022352,0.046484,0.046484,1,0.05,1,0.05,0
0.014877,0.0005457,1.0039e-05,5.1e-05,0,5.1227e-05,1.4511e-06,6.0351e-21,0,1.1856,0.022799,0.047414,0.047414,1,0.051,1,0.05,0
0.015169,0.00055639,1.0853e-05,5.2e-05,0,5.2231e-05,1.4795e-06,6.141e-21,0,1.2089,0.023245,0.048343,0.048343,1,0.052,1,0.05,0
0.01546,0.00056708,1.1717e-05,5.3e-05,0,5.3236e-05,1.508e-06,6.2469e-21,0,1.2321,0.023692,0.049272,0.049272,1,0.053,1,0.05,0
0.015752,0.00057778,1.2631e-05,5.4e-05,0,5.4241e-05,1.5364e-06,6.3527e-21,0,1.2554,0.024139,0.050202,0.050202,1,0.054,1,0.05,0
0.016044,0.00058847,1.3598e-05,5.5e-05,0,5.5245e-05,1.5649e-06,6.4586e-21,0,1.2786,0.024586,0.051131,0.051131,1,0.055,1,0.05,0
0.016335,0.00059916,1.4619e-05,5.6e-05,0,5.625e-05,1.5933e-06,6.4586e-21,0,1.3018,0.025032,0.05206,0.05206,1,0.056,1,0.05,0
0.016627,0.00060986,1.5696e-05,5.7e-05,0,5.7255e-05,1.6218e-06,6.7763e-21,0,1.3251,0.025479,0.052989,0.052989,1,0.057,1,0.05,0
0.016918,0.00062055,1.6832e-05,5.8e-05,0,5.826e-05,1.6502e-06,6.5645e-21,0,1.3483,0.025926,0.053918,0.053918,1,0.058,1,0.05,0
0.01721,0.00063123,1.8028e-05,5.9e-05,0,5.9265e-05,1.6787e-06,6.6704e-21,0,1.3715,0.026372,0.054847,0.054847,1,0.059,1,0.05,0
0.017501,0.00064192,1.9288e-05,6e-05,0,6.027e-05,1.7072e-06,7.0939e-21,0,1.3948,0.026819,0.055776,0.055776,1,0.06,1,0.05,0
0.017792,0.0006525,2.0547e-05,6.1e-05,0,6.1273e-05,1.7356e-06,7.3057e-21,0,1.418,0.027265,0.056704,0.056704,1,0.061,1,0.05,0
0.018084,0.00066329,2.1936e-05,6.2e-05,0,6.2279e-05,1.7641e-06,7.5174e-21,0,1.4412,0.027712,0.057634,0.057634,1,0.062,1,0.05,0
0.018376,0.00067397,2.3393e-05,6.3e-05,0,6.3284e-05,1.7925e-06,7.5174e-21,0,1.4644,0.028159,0.058563,0.058563,1,0.063,1,0.05,0
0.018667,0.00068465,2.4921e-05,6.4e-05,0,6.4289e-05,1.821e-06,7.4115e-21,0,1.4877,0.028605,0.059491,0.059491,1,0.064,1,0.05,0
0.018958,0.00069533,2.6523e-05,6.5e-05,0,6.5294e-05,1.8495e-06,7.6233e-21,0,1.5109,0.029051,0.060419,0.060419,1,0.065,1,0.05,0
0.01925,0.00070601,2.8202e-05,6.6e-05,0,6.6299e-05,1.8779e-06,7.6233e-21,0,1.5341,0.029498,0.061348,0.061348,1,0.066,1,0.05,0
0.019541,0.00071669,2.9958e-05,6.7e-05,0,6.7304e-05,1.9064e-06,8.0468e-21,0,1.5573,0.029944,0.062276,0.062276,1,0.067,1,0.05,0
0.019832,0.00072736,3.1796e-05,6.8e-05,0,6.8309e-05,1.9348e-06,7.8351e-21,0,1.5805,0.03039,0.063204,0.063204,1,0.068,1,0.05,0
0.020123,0.00073803,3.3717e-05,6.9e-05,0,6.9314e-05,1.9633e-06,8.1527e-21,0,1.6037,0.030836,0.064132,0.064132,1,0.069,1,0.05,0
0.020414,0.0007487,3.5723e-05,7e-05,0,7.0319e-05,1.9918e-06,8.2586e-21,0,1.6269,0.031282,0.06506,0.06506,1,0.07,1,0.05,0
0.020705,0.00075937,3.7818e-05,7.1e-05,0,7.1324e-05,2.0202e-06,8.3645e-21,0,1.6501,0.031728,0.065987,0.065987,1,0.071,1,0.05,0
0.020996,0.00077004,4.0003e-05,7.2e-05,0,7.233e-05,2.0487e-06,8.5762e-21,0,1.6733,0.032174,0.066915,0.066914,1,0.072,1,0.05,0
0.021286,0.00078051,4.2172e-05,7.3e-05,0,7.3332e-05,2.0771e-06,8.6821e-21,0,1.6964,0.032619,0.067839,0.067839,1,0.073,1,0.05,0
0.021578,0.00079135,4.4544e-05,7.4e-05,0,7.434e-05,2.1056e-06,8.8938e-21,0,1.7197,0.033065,0.068769,0.068768,1,0.074,1,0.05,0
0.021869,0.000802,4.7013e-05,7.5e-05,0,7.5345e-05,2.1341e-06,8.788e-21,0,1.7428,0.033511,0.069695,0.069695,1,0.075,1,0.05,0
0.02216,0.00081266,4.9583e-05,7.6e-05,0,7.635e-05,2.1625e-06,8.8938e-21,0,1.766,0.033956,0.070622,0.070622,1,0.076,1,0.05,0
0.022451,0.0008233,5.2257e-05,7.7e-05,0,7.7356e-05,2.191e-06,8.9997e-21,0,1.7892,0.034401,0.071548,0.071548,1,0.077,1,0.05,0
0.022741,0.00083395,5.5038e-05,7.8e-05,0,7.8361e-05,2.2195e-06,9.1056e-21,0,1.8123,0.034847,0.072474,0.072474,1,0.078,1,0.05,0
0.023032,0.00084459,5.7929e-05,7.9e-05,0,7.9367e-05,2.2479e-06,9.2115e-21,0,1.8355,0.035292,0.0734,0.073399,1,0.079,1,0.05,0
0.023322,0.00085522,6.0932e-05,8e-05,0,8.0372e-05,2.2764e-06,9.3174e-21,0,1.8586,0.035737,0.074325,0.074325,1,0.08,1,0.05,0
0.023613,0.00086586,6.405e-05,8.1e-05,0,8.1377e-05,2.3049e-06,9.3174e-21,0,1.8817,0.036181,0.07525,0.07525,1,0.081,1,0.05,0
0.023903,0.00087648,6.7287e-05,8.2e-05,0,8.2383e-05,2.3334e-06,9.7409e-21,0,1.9049,0.036626,0.076175,0.076175,1,0.082,1,0.05,0
0.024193,0.00088711,7.0644e-05,8.3e-05,0,8.3388e-05,2.3618e-06,9.5291e-21,0,1.928,0.037071,0.0771,0.077099,1,0.083,1,0.05,0
0.024483,0.00089773,7.4126e-05,8.4e-05,0,8.4394e-05,2.3903e-06,9.7409e-21,0,1.9511,0.037515,0.078024,0.078024,1,0.084,1,0.05,0
0.024771,0.00090803,7.7559e-05,8.5e-05,0,8.5395e-05,2.4187e-06,9.9526e-21,0,1.9741,0.037958,0.078944,0.078943,1,0.085,1,0.05,0
0.025063,0.00091893,8.1297e-05,8.6e-05,0,8.6405e-05,2.4472e-06,1.0164e-20,0,1.9973,0.038403,0.079871,0.07987,1,0.086,1,0.05,0
0.025353,0.00092953,8.5163e-05,8.7e-05,0,8.7411e-05,2.4757e-06,1.0164e-20,0,2.0204,0.038847,0.080794,0.080793,1,0.087,1,0.05,0
0.025642,0.00094013,8.9166e-05,8.8e-05,0,8.8416e-05,2.5042e-06,1.0376e-20,0,2.0434,0.03929,0.081716,0.081716,1,0.088,1,0.05,0
0.025932,0.00095071,9.3308e-05,8.9e-05,0,8.9422e-05,2.5327e-06,1.0164e-20,0,2.0665,0.039734,0.082639,0.082638,1,0.089,1,0.05,0
0.026221,0.00096129,9.7593e-05,9e-05,0,9.0428e-05,2.5611e-06,1.08e-20,0,2.0895,0.040177,0.08356,0.083559,1,0.09,1,0.05,0
0.02651,0.00097187,0.00010202,9.1e-05,0,9.1434e-05,2.5896e-06,1.08e-20,0,2.1125,0.04062,0.084481,0.08448,1,0.091,1,0.05,0
0.026799,0.00098243,0.0001066,9.2e-05,0,9.244e-05,2.6181e-06,1.08e-20,0,2.1356,0.041063,0.085402,0.085401,1,0.092,1,0.05,0
0.027088,0.00099299,0.00011134,9.3e-05,0,9.3446e-05,2.6466e-06,1.08e-20,0,2.1586,0.041505,0.086322,0.086321,1,0.093,1,0.05,0
0.027377,0.0010035,0.00011623,9.4e-05,0,9.4452e-05,2.6751e-06,1.1011e-20,0,2.1816,0.041947,0.087242,0.08724,1,0.094,1,0.05,0
0.027666,0.0010141,0.00012127,9.5e-05,0,9.5458e-05,2.7035e-06,1.1223e-20,0,2.2045,0.042389,0.08816,0.088159,1,0.095,1,0.05,0
0.027954,0.0010246,0.00012648,9.6e-05,0,9.6464e-05,2.732e-06,1.1435e-20,0,2.2275,0.042831,0.089079,0.089077,1,0.096,1,0.05,0
0.02824,0.0010347,0.0001316,9.7e-05,0,9.7463e-05,2.7604e-06,1.1647e-20,0,2.2503,0.043271,0.08999,0.089988,1,0.097,1,0.05,0
0.02853,0.0010456,0.00013714,9.8e-05,0,9.8476e-05,2.789e-06,1.1435e-20,0,2.2734,0.043713,0.090913,0.090911,1,0.098,1,0.05,0
0.028818,0.0010561,0.00014286,9.9e-05,0,9.9482e-05,2.8175e-06,1.1647e-20,0,2.2963,0.044154,0.091829,0.091827,1,0.099,1,0.05,0
0.029106,0.0010666,0.00014874,0.0001,0,0.00010049,2.846e-06,1.1858e-20,0,2.3192,0.044595,0.092745,0.092742,1,0.1,1,0.05,0
0.029393,0.0010771,0.00015481,0.000101,0,0.00010149,2.8745e-06,1.1858e-20,0,2.342,0.045035,0.093659,0.093657,1,0.101,1,0.05,0
0.02968,0.0010876,0.00016107,0.000102,0,0.0001025,2.903e-06,1.207e-20,0,2.3649,0.045474,0.094573,0.09457,1,0.102,1,0.05,0
0.029967,0.001098,0.00016751,0.000103,0,0.00010351,2.9315e-06,1.2494e-20,0,2.3877,0.045914,0.095486,0.095483,1,0.103,1,0.05,0
0.030254,0.0011085,0.00017414,0.000104,0,0.00010451,2.96e-06,1.2282e-20,0,2.4105,0.046353,0.096399,0.096395,1,0.104,1,0.05,0
0.03054,0.0011189,0.00018096,0.000105,0,0.00010552,2.9885e-06,1.2494e-20,0,2.4333,0.046791,0.09731,0.097306,1,0.105,1,0.05,0
0.030826,0.0011293,0.00018799,0.000106,0,0.00010653,3.017e-06,1.2494e-20,0,2.456,0.047229,0.09822,0.098216,1,0.106,1,0.05,0
0.031112,0.0011398,0.00019522,0.000107,0,0.00010753,3.0455e-06,1.2705e-20,0,2.4788,0.047667,0.09913,0.099126,1,0.107,1,0.05,0
0.031397,0.0011501,0.00020265,0.000108,0,0.00010854,3.074e-06,1.2705e-20,0,2.5015,0.048104,0.10004,0.10003,1,0.108,1,0.05,0
0.031679,0.0011598,0.00020992,0.000109,0,0.00010954,3.1023e-06,1.2705e-20,0,2.5239,0.048539,0.10094,0.10093,1,0.109,1,0.05,0
0.031967,0.0011709,0.00021779,0.00011,0,0.00011055,3.131e-06,1.2917e-20,0,2.5468,0.048977,0.10185,0.10185,1,0.11,1,0.05,0
0.032252,0.0011812,0.00022585,0.000111,0,0.00011156,3.1595e-06,1.3129e-20,0,2.5694,0.049413,0.10276,0.10275,1,0.111,1,0.05,0
0.032536,0.0011915,0.00023414,0.000112,0,0.00011257,3.188e-06,1.3129e-20,0,2.592,0.049848,0.10366,0.10365,1,0.112,1,0.05,0
0.03282,0.0012018,0.00024266,0.000113,0,0.00011357,3.2165e-06,1.3129e-20,0,2.6146,0.050283,0.10456,0.10456,1,0.113,1,0.05,0
0.033104,0.0012121,0.00025141,0.000114,0,0.00011458,3.245e-06,1.3341e-20,0,2.6371,0.050717,0.10546,0.10546,1,0.114,1,0.05,0
0.033387,0.0012224,0.00026039,0.000115,0,0.00011559,3.2735e-06,1.3341e-20,0,2.6596,0.051151,0.10636,0.10636,1,0.115,1,0.05,0
0.03367,0.0012327,0.00026961,0.000116,0,0.00011659,3.302e-06,1.3976e-20,0,2.6821,0.051584,0.10726,0.10726,1,0.116,1,0.05,0
0.033952,0.0012429,0.00027907,0.000117,0,0.0001176,3.3306e-06,1.3553e-20,0,2.7045,0.052016,0.10816,0.10815,1,0.117,1,0.05,0
0.034234,0.0012531,0.00028878,0.000118,0,0.00011861,3.3591e-06,1.3976e-20,0,2.7269,0.052448,0.10906,0.10905,1,0.118,1,0.05,0
0.034515,0.0012633,0.00029874,0.000119,0,0.00011961,3.3876e-06,1.3764e-20,0,2.7493,0.052879,0.10995,0.10994,1,0.119,1,0.05,0
0.034791,0.0012725,0.00030844,0.00012,0,0.00012061,3.4159e-06,1.4188e-20,0,2.7712,0.053306,0.11083,0.11082,1,0.12,1,0.05,0
0.035077,0.0012836,0.00031895,0.000121,0,0.00012163,3.4447e-06,1.3976e-20,0,2.7938,0.053739,0.11173,0.11172,1,0.121,1,0.05,0
0.035357,0.0012937,0.00032967,0.000122,0,0.00012264,3.4732e-06,1.4611e-20,0,2.816,0.054168,0.11262,0.11261,1,0.122,1,0.05,0
0.035637,0.0013038,0.00034067,0.000123,0,0.00012364,3.5017e-06,1.44e-20,0,2.8382,0.054596,0.11351,0.1135,1,0.123,1,0.05,0
0.035916,0.0013139,0.00035194,0.000124,0,0.00012465,3.5303e-06,1.5035e-20,0,2.8604,0.055024,0.1144,0.11439,1,0.124,1,0.05,0
0.036194,0.0013239,0.00036349,0.000125,0,0.00012566,3.5588e-06,1.4611e-20,0,2.8824,0.05545,0.11528,0.11527,1,0.125,1,0.05,0
0.036472,0.001334,0.00037532,0.000126,0,0.00012667,3.5873e-06,1.5247e-20,0,2.9045,0.055876,0.11616,0.11615,1,0.126,1,0.05,0
0.03675,0.001344,0.00038744,0.000127,0,0.00012767,3.6159e-06,1.4823e-20,0,2.9265,0.056301,0.11704,0.11703,1,0.127,1,0.05,0
0.037027,0.0013539,0.00039985,0.000128,0,0.00012868,3.6444e-06,1.5247e-20,0,2.9484,0.056725,0.11792,0.11791,1,0.128,1,0.05,0
0.037303,0.0013639,0.00041255,0.000129,0,0.00012969,3.673e-06,1.567e-20,0,2.9703,0.057148,0.1188,0.11878,1,0.129,1,0.05,0
0.037571,0.0013725,0.00042489,0.00013,0,0.00013068,3.7013e-06,1.5247e-20,0,2.9917,0.057566,0.11966,0.11964,1,0.13,1,0.05,0
0.037853,0.0013836,0.00043825,0.000131,0,0.0001317,3.7301e-06,1.5247e-20,0,3.0139,0.057991,0.12054,0.12053,1,0.131,1,0.05,0
0.038128,0.0013934,0.00045186,0.000132,0,0.00013271,3.7586e-06,1.567e-20,0,3.0356,0.058411,0.12141,0.12139,1,0.132,1,0.05,0
0.038401,0.0014032,0.00046578,0.000133,0,0.00013372,3.7872e-06,1.5247e-20,0,3.0573,0.05883,0.12228,0.12226,1,0.133,1,0.05,0
0.038674,0.001413,0.00048002,0.000134,0,0.00013473,3.8158e-06,1.6094e-20,0,3.0788,0.059248,0.12314,0.12312,1,0.134,1,0.05,0
0.038946,0.0014228,0.00049458,0.000135,0,0.00013573,3.8443e-06,1.567e-20,0,3.1004,0.059665,0.12401,0.12398,1,0.135,1,0.05,0
0.039218,0.0014325,0.00050947,0.000136,0,0.00013674,3.8729e-06,1.6305e-20,0,3.1218,0.060081,0.12487,0.12484,1,0.136,1,0.05,0
0.039489,0.0014421,0.0005247,0.000137,0,0.00013775,3.9015e-06,1.6517e-20,0,3.1432,0.060496,0.12572,0.1257,1,0.137,1,0.05,0
0.03975,0.0014502,0.00053945,0.000138,0,0.00013874,3.9297e-06,1.6094e-20,0,3.164,0.060904,0.12655,0.12653,1,0.138,1,0.05,0
0.040028,0.0014613,0.00055545,0.000139,0,0.00013977,3.9586e-06,1.6305e-20,0,3.1858,0.061321,0.12743,0.1274,1,0.139,1,0.05,0
0.040296,0.0014708,0.0005717,0.00014,0,0.00014077,3.9872e-06,1.6305e-20,0,3.2069,0.061732,0.12827,0.12824,1,0.14,1,0.05,0
0.040563,0.0014803,0.00058829,0.000141,0,0.00014178,4.0158e-06,1.6941e-20,0,3.228,0.062142,0.12912,0.12909,1,0.141,1,0.05,0
0.04083,0.0014897,0.00060525,0.000142,0,0.00014279,4.0444e-06,1.6517e-20,0,3.249,0.06255,0.12996,0.12993,1,0.142,1,0.05,0
0.041095,0.0014991,0.00062257,0.000143,0,0.0001438,4.073e-06,1.6941e-20,0,3.2699,0.062957,0.1308,0.13076,1,0.143,1,0.05,0
0.04136,0.0015085,0.00064027,0.000144,0,0.00014481,4.1016e-06,1.7152e-20,0,3.2908,0.063362,0.13163,0.1316,1,0.144,1,0.05,0
0.041613,0.001516,0.00065737,0.000145,0,0.00014579,4.1298e-06,1.7152e-20,0,3.3109,0.06376,0.13244,0.1324,1,0.145,1,0.05,0
0.041876,0.0015252,0.00067492,0.000146,0,0.00014679,4.1584e-06,1.6729e-20,0,3.3315,0.064162,0.13327,0.13323,1,0.146,1,0.05,0
0.042148,0.0015361,0.00069386,0.000147,0,0.00014783,4.1874e-06,1.7364e-20,0,3.3527,0.064569,0.13411,0.13407,1,0.147,1,0.05,0
0.042408,0.0015453,0.00071304,0.000148,0,0.00014884,4.216e-06,1.8211e-20,0,3.3731,0.064968,0.13493,0.13489,1,0.148,1,0.05,0
0.042668,0.0015544,0.00073262,0.000149,0,0.00014984,4.2446e-06,1.7576e-20,0,3.3934,0.065366,0.13575,0.1357,1,0.149,1,0.05,0
0.042926,0.0015634,0.0007526,0.00015,0,0.00015085,4.2732e-06,1.7576e-20,0,3.4137,0.065762,0.13656,0.13651,1,0.15,1,0.05,0
0.043184,0.0015723,0.00077299,0.000151,0,0.00015186,4.3018e-06,1.7788e-20,0,3.4338,0.066156,0.13737,0.13732,1,0.151,1,0.05,0
0.04344,0.0015813,0.00079379,0.000152,0,0.00015287,4.3305e-06,1.7999e-20,0,3.4539,0.066549,0.13818,0.13812,1,0.152,1,0.05,0
0.043695,0.0015901,0.00081501,0.000153,0,0.00015388,4.3591e-06,1.7788e-20,0,3.4738,0.06694,0.13898,0.13892,1,0.153,1,0.05,0
0.043949,0.0015989,0.00083665,0.000154,0,0.00015489,4.3877e-06,1.8211e-20,0,3.4937,0.067329,0.13977,0.13971,1,0.154,1,0.05,0
0.044188,0.0016054,0.00085752,0.000155,0,0.00015586,4.4159e-06,1.8635e-20,0,3.5126,0.067708,0.14053,0.14047,1,0.155,1,0.05,0
0.044439,0.001614,0.00087893,0.000156,0,0.00015687,4.4445e-06,1.8635e-20,0,3.5321,0.068093,0.14132,0.14125,1,0.156,1,0.05,0
0.044702,0.0016248,0.00090205,0.000157,0,0.00015791,4.4736e-06,1.8635e-20,0,3.5523,0.068483,0.14213,0.14206,1,0.157,1,0.05,0
0.04495,0.0016333,0.00092539,0.000158,0,0.00015891,4.5023e-06,1.8211e-20,0,3.5716,0.068864,0.1429,0.14283,1,0.158,1,0.05,0
0.045197,0.0016417,0.00094919,0.000159,0,0.00015992,4.5309e-06,1.8635e-20,0,3.5908,0.069243,0.14367,0.1436,1,0.159,1,0.05,0
0.045443,0.00165,0.00097344,0.00016,0,0.00016093,4.5596e-06,1.8846e-20,0,3.6099,0.06962,0.14444,0.14436,1,0.16,1,0.05,0
0.045687,0.0016583,0.00099816,0.000161,0,0.00016194,4.5883e-06,1.927e-20,0,3.6288,0.069994,0.1452,0.14512,1,0.161,1,0.05,0
0.04593,0.0016666,0.0010233,0.000162,0,0.00016294,4.617e-06,1.9058e-20,0,3.6476,0.070367,0.14596,0.14587,1,0.162,1,0.05,0
0.046156,0.0016721,0.0010476,0.000163,0,0.00016391,4.645e-06,1.9482e-20,0,3.6654,0.070728,0.14667,0.14658,1,0.163,1,0.05,0
0.046377,0.0016769,0.0010711,0.000164,0,0.00016487,4.6733e-06,1.8635e-20,0,3.6827,0.071089,0.14737,0.14727,1,0.164,1,0.05,0
0.046614,0.0016846,0.0010951,0.000165,0,0.00016587,4.7019e-06,1.9482e-20,0,3.7009,0.071453,0.1481,0.148,1,0.165,1,0.05,0
0.046883,0.0016979,0.0011228,0.000166,0,0.00016696,4.7316e-06,1.9482e-20,0,3.721,0.071831,0.14891,0.14881,1,0.166,1,0.05,0
0.047118,0.0017056,0.0011503,0.000167,0,0.00016797,4.7602e-06,1.9482e-20,0,3.739,0.072191,0.14963,0.14952,1,0.167,1,0.05,0
0.04735,0.0017131,0.0011783,0.000168,0,0.00016897,4.7889e-06,1.9482e-20,0,3.7568,0.072548,0.15035,0.15024,1,0.168,1,0.05,0
0.047581,0.0017206,0.0012068,0.000169,0,0.00016998,4.8176e-06,1.9482e-20,0,3.7744,0.072903,0.15106,0.15094,1,0.169,1,0.05,0
0.04781,0.0017279,0.0012358,0.00017,0,0.00017098,4.8463e-06,2.0329e-20,0,3.7919,0.073255,0.15176,0.15164,1,0.17,1,0.05,0
0.048038,0.0017352,0.0012653,0.000171,0,0.00017198,4.875e-06,1.9905e-20,0,3.8093,0.073604,0.15246,0.15234,1,0.171,1,0.05,0
0.048263,0.0017424,0.0012954,0.000172,0,0.00017299,4.9037e-06,2.0329e-20,0,3.8264,0.073951,0.15315,0.15302,1,0.172,1,0.05,0
0.048487,0.0017495,0.001326,0.000173,0,0.00017399,4.9324e-06,2.0329e-20,0,3.8434,0.074295,0.15384,0.1537,1,0.173,1,0.05,0
0.04869,0.0017533,0.0013553,0.000174,0,0.00017495,4.9603e-06,2.0329e-20,0,3.8591,0.074624,0.15447,0.15433,1,0.174,1,0.05,0
0.048886,0.0017562,0.0013838,0.000175,0,0.00017589,4.9885e-06,2.0329e-20,0,3.8743,0.074954,0.15509,0.15494,1,0.175,1,0.05,0
0.049102,0.0017626,0.0014129,0.000176,0,0.00017689,5.0171e-06,2.0752e-20,0,3.8906,0.075288,0.15574,0.15559,1,0.176,1,0.05,0
0.049316,0.0017688,0.0014425,0.000177,0,0.00017788,5.0458e-06,2.0752e-20,0,3.9066,0.075618,0.15639,0.15623,1,0.177,1,0.05,0
0.04957,0.0017819,0.0014767,0.000178,0,0.00017899,5.0757e-06,2.0752e-20,0,3.9249,0.075966,0.15713,0.15696,1,0.178,1,0.05,0
0.04978,0.0017881,0.0015104,0.000179,0,0.00017999,5.1044e-06,2.1176e-20,0,3.9406,0.07629,0.15776,0.15759,1,0.179,1,0.05,0
0.049988,0.001794,0.0015447,0.00018,0,0.00018098,5.1331e-06,2.1599e-20,0,3.956,0.076611,0.15838,0.15821,1,0.18,1,0.05,0
0.050194,0.0017999,0.0015796,0.000181,0,0.00018198,5.1618e-06,2.1176e-20,0,3.9713,0.076929,0.159,0.15882,1,0.181,1,0.05,0
0.050398,0.0018057,0.001615,0.000182,0,0.00018298,5.1905e-06,2.1599e-20,0,3.9864,0.077244,0.15961,0.15942,1,0.182,1,0.05,0
0.050574,0.001807,0.0016489,0.000183,0,0.00018391,5.2186e-06,2.1176e-20,0,3.9998,0.077545,0.16015,0.15996,1,0.183,1,0.05,0
0.05075,0.0018086,0.0016819,0.000184,0,0.00018485,5.2464e-06,2.2023e-20,0,4.0131,0.07784,0.16069,0.16049,1,0.184,1,0.05,0
0.050945,0.0018135,0.0017156,0.000185,0,0.00018584,5.275e-06,2.2023e-20,0,4.0273,0.078143,0.16126,0.16106,1,0.185,1,0.05,0
0.051137,0.0018182,0.0017499,0.000186,0,0.00018682,5.3036e-06,2.2023e-20,0,4.0413,0.078442,0.16183,0.16162,1,0.186,1,0.05,0
0.051326,0.0018226,0.0017846,0.000187,0,0.00018781,5.3322e-06,2.2446e-20,0,4.0549,0.078737,0.16238,0.16216,1,0.187,1,0.05,0
0.051512,0.0018267,0.0018199,0.000188,0,0.00018879,5.3608e-06,2.2446e-20,0,4.0682,0.079028,0.16292,0.1627,1,0.188,1,0.05,0
0.051717,0.0018343,0.001858,0.000189,0,0.00018983,5.3903e-06,2.2023e-20,0,4.0827,0.079328,0.1635,0.16327,1,0.189,1,0.05,0
0.051898,0.0018381,0.0018961,0.00019,0,0.00019081,5.4189e-06,2.2023e-20,0,4.0955,0.079611,0.16402,0.16379,1,0.19,1,0.05,0
0.052075,0.0018416,0.0019349,0.000191,0,0.00019179,5.4474e-06,2.2023e-20,0,4.1082,0.079889,0.16453,0.16429,1,0.191,1,0.05,0
0.05225,0.0018449,0.0019742,0.000192,0,0.00019276,5.476e-06,2.2446e-20,0,4.1205,0.080164,0.16503,0.16479,1,0.192,1,0.05,0
0.052397,0.0018439,0.0020119,0.000193,0,0.00019367,5.5036e-06,2.287e-20,0,4.1312,0.080419,0.16546,0.16521,1,0.193,1,0.05,0
0.052565,0.0018466,0.0020504,0.000194,0,0.00019464,5.5321e-06,2.287e-20,0,4.1429,0.080685,0.16593,0.16568,1,0.194,1,0.05,0
0.05273,0.0018489,0.0020896,0.000195,0,0.00019561,5.5606e-06,2.3293e-20,0,4.1542,0.080945,0.16639,0.16614,1,0.195,1,0.05,0
0.052891,0.001851,0.0021293,0.000196,0,0.00019657,5.5891e-06,2.287e-20,0,4.1652,0.081202,0.16683,0.16658,1,0.196,1,0.05,0
0.053048,0.0018527,0.0021696,0.000197,0,0.00019754,5.6176e-06,2.3293e-20,0,4.1759,0.081453,0.16726,0.167,1,0.197,1,0.05,0
0.053202,0.0018541,0.0022104,0.000198,0,0.00019849,5.646e-06,2.3717e-20,0,4.1862,0.081699,0.16768,0.16741,1,0.198,1,0.05,0
0.053353,0.0018552,0.0022518,0.000199,0,0.00019945,5.6744e-06,2.3717e-20,0,4.1961,0.081941,0.16808,0.16781,1,0.199,1,0.05,0
0.0535,0.001856,0.0022938,0.0002,0,0.0002004,5.7028e-06,2.414e-20,0,4.2057,0.082178,0.16847,0.16819,1,0.2,1,0.05,0
0.053643,0.0018565,0.0023363,0.000201,0,0.00020135,5.7312e-06,2.4564e-20,0,4.2148,0.08241,0.16884,0.16856,1,0.201,1,0.05,0
0.053782,0.0018566,0.0023795,0.000202,0,0.00020229,5.7596e-06,2.4564e-20,0,4.2237,0.082636,0.1692,0.16891,1,0.202,1,0.05,0
0.053918,0.0018564,0.0024233,0.000203,0,0.00020323,5.7879e-06,2.4564e-20,0,4.2321,0.082858,0.16954,0.16925,1,0.203,1,0.05,0
0.05405,0.0018559,0.0024676,0.000204,0,0.00020417,5.8162e-06,2.3717e-20,0,4.2401,0.083075,0.16987,0.16957,1,0.204,1,0.05,0
0.054178,0.001855,0.0025126,0.000205,0,0.0002051,5.8445e-06,2.4564e-20,0,4.2478,0.083286,0.17018,0.16988,1,0.205,1,0.05,0
0.054302,0.0018537,0.0025581,0.000206,0,0.00020603,5.8728e-06,2.4564e-20,0,4.255,0.083492,0.17047,0.17017,1,0.206,1,0.05,0
0.054422,0.0018522,0.0026043,0.000207,0,0.00020696,5.9011e-06,2.414e-20,0,4.2619,0.083693,0.17075,0.17044,1,0.207,1,0.05,0
0.054538,0.0018502,0.0026511,0.000208,0,0.00020788,5.9293e-06,2.4987e-20,0,4.2683,0.083889,0.17101,0.1707,1,0.208,1,0.05,0
0.05465,0.0018479,0.0026986,0.000209,0,0.0002088,5.9575e-06,2.4987e-20,0,4.2743,0.08408,0.17126,0.17094,1,0.209,1,0.05,0
0.054757,0.0018452,0.0027467,0.00021,0,0.00020971,5.9857e-06,2.4987e-20,0,4.2799,0.084265,0.17148,0.17117,1,0.21,1,0.05,0
0.054861,0.0018422,0.0027954,0.000211,0,0.00021062,6.0139e-06,2.4564e-20,0,4.2851,0.084445,0.1717,0.17137,1,0.211,1,0.05,0
0.05496,0.0018388,0.0028447,0.000212,0,0.00021152,6.0421e-06,2.4564e-20,0,4.2899,0.084619,0.17189,0.17156,1,0.212,1,0.05,0
0.055055,0.001835,0.0028947,0.000213,0,0.00021242,6.0702e-06,2.4564e-20,0,4.2942,0.084788,0.17207,0.17174,1,0.213,1,0.05,0
0.055145,0.0018308,0.0029454,0.000214,0,0.00021332,6.0984e-06,2.5411e-20,0,4.2981,0.084952,0.17223,0.17189,1,0.214,1,0.05,0
0.055231,0.0018262,0.0029967,0.000215,0,0.00021421,6.1265e-06,2.4564e-20,0,4.3016,0.08511,0.17237,0.17203,1,0.215,1,0.05,0
0.055313,0.0018213,0.0030487,0.000216,0,0.00021509,6.1546e-06,2.5411e-20,0,4.3046,0.085262,0.1725,0.17215,1,0.216,1,0.05,0
0.05539,0.0018159,0.0031014,0.000217,0,0.00021597,6.1827e-06,2.4987e-20,0,4.3072,0.085409,0.1726,0.17226,1,0.217,1,0.05,0
0.055462,0.0018102,0.0031548,0.000218,0,0.00021684,6.2107e-06,2.5411e-20,0,4.3093,0.085551,0.17269,0.17234,1,0.218,1,0.05,0
0.05553,0.001804,0.0032088,0.000219,0,0.00021771,6.2388e-06,2.5411e-20,0,4.311,0.085687,0.17277,0.17241,1,0.219,1,0.05,0
0.055593,0.0017974,0.0032636,0.00022,0,0.00021858,6.2668e-06,2.5411e-20,0,4.3122,0.085818,0.17282,0.17246,1,0.22,1,0.05,0
0.055651,0.0017905,0.003319,0.000221,0,0.00021943,6.2949e-06,2.6258e-20,0,4.313,0.085943,0.17285,0.17249,1,0.221,1,0.05,0
0.055705,0.0017831,0.0033751,0.000222,0,0.00022028,6.3229e-06,2.5835e-20,0,4.3133,0.086063,0.17287,0.1725,1,0.222,1,0.05,0
0.055754,0.0017753,0.003432,0.000223,0,0.00022113,6.3509e-06,2.6258e-20,0,4.3131,0.086177,0.17287,0.17249,1,0.223,1,0.05,0
0.055798,0.0017671,0.0034896,0.000224,0,0.00022197,6.3789e-06,2.6682e-20,0,4.3125,0.086286,0.17284,0.17247,1,0.224,1,0.05,0
0.055837,0.0017584,0.0035479,0.000225,0,0.0002228,6.4069e-06,2.6258e-20,0,4.3114,0.086389,0.1728,0.17242,1,0.225,1,0.05,0
0.055871,0.0017494,0.0036069,0.000226,0,0.00022362,6.4349e-06,2.6258e-20,0,4.3098,0.086487,0.17275,0.17236,1,0.226,1,0.05,0
0.0559,0.0017399,0.0036667,0.000227,0,0.00022444,6.463e-06,2.6682e-20,0,4.3077,0.08658,0.17267,0.17228,1,0.227,1,0.05,0
0.055924,0.00173,0.0037273,0.000228,0,0.00022525,6.491e-06,2.7105e-20,0,4.3052,0.086668,0.17257,0.17218,1,0.228,1,0.05,0
0.055944,0.0017196,0.0037886,0.000229,0,0.00022606,6.519e-06,2.6258e-20,0,4.3022,0.08675,0.17245,0.17206,1,0.229,1,0.05,0
0.055905,0.0017138,0.0038471,0.00023,0,0.00022661,6.5456e-06,2.6258e-20,0,4.2932,0.086807,0.1721,0.1717,1,0.23,1,0.05,0
0.05586,0.0017079,0.0039047,0.000231,0,0.00022715,6.5705e-06,2.7105e-20,0,4.2838,0.086837,0.17173,0.17132,1,0.231,1,0.05,0
0.055865,0.0016969,0.0039633,0.000232,0,0.00022791,6.5983e-06,2.7105e-20,0,4.2795,0.08691,0.17157,0.17115,1,0.232,1,0.05,0
0.055866,0.0016857,0.0040226,0.000233,0,0.00022865,6.626e-06,2.7529e-20,0,4.2748,0.086983,0.17139,0.17097,1,0.233,1,0.05,0
0.055862,0.0016743,0.0040827,0.000234,0,0.00022938,6.6536e-06,2.7952e-20,0,4.2699,0.087055,0.1712,0.17077,1,0.234,1,0.05,0
0.055854,0.0016626,0.0041436,0.000235,0,0.00023009,6.6812e-06,2.7952e-20,0,4.2646,0.087126,0.17099,0.17056,1,0.235,1,0.05,0
0.055841,0.0016506,0.0042052,0.000236,0,0.00023079,6.7088e-06,2.7529e-20,0,4.259,0.087195,0.17077,0.17033,1,0.236,1,0.05,0
0.055824,0.0016385,0.0042675,0.000237,0,0.00023148,6.7363e-06,2.7529e-20,0,4.253,0.087264,0.17054,0.17009,1,0.237,1,0.05,0
0.055802,0.001626,0.0043307,0.000238,0,0.00023215,6.7638e-06,2.7952e-20,0,4.2467,0.087331,0.1703,0.16984,1,0.238,1,0.05,0
0.055776,0.0016133,0.0043946,0.000239,0,0.0002328,6.7912e-06,2.7105e-20,0,4.2401,0.087398,0.17004,0.16958,1,0.239,1,0.05,0
0.055745,0.0016004,0.0044593,0.00024,0,0.00023344,6.8186e-06,2.7952e-20,0,4.2331,0.087463,0.16977,0.1693,1,0.24,1,0.05,0
0.05571,0.0015872,0.0045249,0.000241,0,0.00023406,6.846e-06,2.8376e-20,0,4.2258,0.087528,0.16948,0.16901,1,0.241,1,0.05,0
0.055669,0.0015737,0.0045912,0.000242,0,0.00023467,6.8733e-06,2.7529e-20,0,4.2182,0.087592,0.16918,0.1687,1,0.242,1,0.05,0
0.055624,0.0015599,0.0046584,0.000243,0,0.00023526,6.9006e-06,2.8376e-20,0,4.2101,0.087655,0.16887,0.16838,1,0.243,1,0.05,0
0.055575,0.0015459,0.0047264,0.000244,0,0.00023584,6.9279e-06,2.8799e-20,0,4.2018,0.087718,0.16854,0.16805,1,0.244,1,0.05,0
0.05552,0.0015316,0.0047953,0.000245,0,0.00023639,6.9552e-06,2.7952e-20,0,4.1931,0.087779,0.1682,0.1677,1,0.245,1,0.05,0
0.055461,0.001517,0.004865,0.000246,0,0.00023694,6.9824e-06,2.8799e-20,0,4.184,0.087841,0.16784,0.16734,1,0.246,1,0.05,0
0.055396,0.0015022,0.0049356,0.000247,0,0.00023746,7.0097e-06,2.8799e-20,0,4.1746,0.087902,0.16747,0.16696,1,0.247,1,0.05,0
0.055327,0.001487,0.0050071,0.000248,0,0.00023797,7.0369e-06,2.9223e-20,0,4.1649,0.087962,0.16709,0.16657,1,0.248,1,0.05,0
0.055253,0.0014716,0.0050795,0.000249,0,0.00023846,7.0641e-06,2.9646e-20,0,4.1547,0.088022,0.16669,0.16617,1,0.249,1,0.05,0
0.055174,0.0014559,0.0051527,0.00025,0,0.00023893,7.0913e-06,2.8799e-20,0,4.1443,0.088082,0.16628,0.16575,1,0.25,1,0.05,0
0.05509,0.0014399,0.0052269,0.000251,0,0.00023939,7.1186e-06,2.9646e-20,0,4.1334,0.088141,0.16585,0.16532,1,0.251,1,0.05,0
0.055001,0.0014236,0.0053021,0.000252,0,0.00023983,7.1458e-06,3.0493e-20,0,4.1222,0.0882,0.16541,0.16487,1,0.252,1,0.05,0
0.054906,0.001407,0.0053781,0.000253,0,0.00024025,7.1731e-06,2.9646e-20,0,4.1106,0.088259,0.16495,0.1644,1,0.253,1,0.05,0
0.054807,0.00139,0.0054552,0.000254,0,0.00024066,7.2004e-06,3.007e-20,0,4.0987,0.088319,0.16448,0.16393,1,0.254,1,0.05,0
0.054703,0.0013728,0.0055332,0.000255,0,0.00024104,7.2277e-06,3.007e-20,0,4.0864,0.088378,0.164,0.16344,1,0.255,1,0.05,0
0.054593,0.0013553,0.0056122,0.000256,0,0.00024141,7.255e-06,3.134e-20,0,4.0737,0.088437,0.1635,0.16293,1,0.256,1,0.05,0
0.054479,0.0013374,0.0056922,0.000257,0,0.00024176,7.2824e-06,2.9646e-20,0,4.0607,0.088497,0.16298,0.16241,1,0.257,1,0.05,0
0.054359,0.0013193,0.0057732,0.000258,0,0.00024209,7.3098e-06,3.0493e-20,0,4.0473,0.088557,0.16245,0.16187,1,0.258,1,0.05,0
0.054234,0.0013008,0.0058553,0.000259,0,0.00024241,7.3373e-06,3.0493e-20,0,4.0335,0.088617,0.16191,0.16132,1,0.259,1,0.05,0
0.054103,0.001282,0.0059383,0.00026,0,0.0002427,7.3648e-06,3.0493e-20,0,4.0194,0.088678,0.16135,0.16076,1,0.26,1,0.05,0
0.053968,0.0012629,0.0060225,0.000261,0,0.00024298,7.3924e-06,3.0493e-20,0,4.0049,0.08874,0.16078,0.16018,1,0.261,1,0.05,0
0.053827,0.0012434,0.0061077,0.000262,0,0.00024324,7.42e-06,3.134e-20,0,3.99,0.088802,0.16019,0.15958,1,0.262,1,0.05,0
0.053681,0.0012236,0.0061941,0.000263,0,0.00024348,7.4477e-06,3.0493e-20,0,3.9747,0.088865,0.15959,0.15897,1,0.263,1,0.05,0
0.05353,0.0012035,0.0062815,0.000264,0,0.0002437,7.4755e-06,3.0493e-20,0,3.9591,0.088929,0.15897,0.15835,1,0.264,1,0.05,0
0.053374,0.0011831,0.0063701,0.000265,0,0.0002439,7.5034e-06,3.0493e-20,0,3.9431,0.088993,0.15834,0.15771,1,0.265,1,0.05,0
0.053212,0.0011623,0.0064598,0.000266,0,0.00024408,7.5314e-06,3.0917e-20,0,3.9267,0.089059,0.15769,0.15705,1,0.266,1,0.05,0
0.053045,0.0011412,0.0065507,0.000267,0,0.00024424,7.5595e-06,3.0493e-20,0,3.91,0.089127,0.15703,0.15639,1,0.267,1,0.05,0
0.052872,0.0011197,0.0066428,0.000268,0,0.00024439,7.5877e-06,3.134e-20,0,3.8929,0.089195,0.15635,0.1557,1,0.268,1,0.05,0
0.052694,0.0010979,0.0067361,0.000269,0,0.00024451,7.616e-06,3.2611e-20,0,3.8754,0.089265,0.15566,0.155,1,0.269,1,0.05,0
0.052512,0.0010758,0.0068306,0.00027,0,0.00024462,7.6445e-06,3.134e-20,0,3.8576,0.089337,0.15495,0.15429,1,0.27,1,0.05,0
0.052324,0.0010533,0.0069265,0.000271,0,0.00024471,7.6731e-06,3.1764e-20,0,3.8394,0.08941,0.15423,0.15356,1,0.271,1,0.05,0
0.05213,0.0010304,0.0070236,0.000272,0,0.00024477,7.7018e-06,3.2187e-20,0,3.8209,0.089486,0.15349,0.15282,1,0.272,1,0.05,0
0.051932,0.0010072,0.007122,0.000273,0,0.00024482,7.7307e-06,3.2187e-20,0,3.802,0.089564,0.15274,0.15207,1,0.273,1,0.05,0
0.051728,0.00098369,0.0072218,0.000274,0,0.00024485,7.7598e-06,3.2187e-20,0,3.7827,0.089644,0.15198,0.1513,1,0.274,1,0.05,0
0.051519,0.0009598,0.0073228,0.000275,0,0.00024487,7.7891e-06,3.2611e-20,0,3.7631,0.089726,0.1512,0.15051,1,0.275,1,0.05,0
0.051305,0.00093557,0.0074251,0.000276,0,0.00024486,7.8186e-06,3.3034e-20,0,3.7431,0.089811,0.15041,0.14971,1,0.276,1,0.05,0
0.051086,0.00091098,0.007529,0.000277,0,0.00024483,7.8482e-06,3.3034e-20,0,3.7228,0.089899,0.14961,0.1489,1,0.277,1,0.05,0
0.050862,0.00088603,0.0076343,0.000278,0,0.00024479,7.8781e-06,3.2611e-20,0,3.7022,0.08999,0.14879,0.14808,1,0.278,1,0.05,0
0.050633,0.00086074,0.0077412,0.000279,0,0.00024472,7.9083e-06,3.3034e-20,0,3.6812,0.090084,0.14796,0.14724,1,0.279,1,0.05,0
0.050399,0.00083508,0.0078495,0.00028,0,0.00024464,7.9387e-06,3.3034e-20,0,3.6598,0.090181,0.14711,0.14639,1,0.28,1,0.05,0
0.05016,0.00080908,0.0079595,0.000281,0,0.00024454,7.9694e-06,3.3458e-20,0,3.6382,0.090282,0.14625,0.14552,1,0.281,1,0.05,0
0.049916,0.00078271,0.0080712,0.000282,0,0.00024442,8.0003e-06,3.3881e-20,0,3.6162,0.090386,0.14538,0.14464,1,0.282,1,0.05,0
0.049667,0.00075598,0.0081845,0.000283,0,0.00024428,8.0315e-06,3.3034e-20,0,3.5939,0.090495,0.14449,0.14375,1,0.283,1,0.05,0
0.049413,0.0007289,0.0082995,0.000284,0,0.00024413,8.063e-06,3.3881e-20,0,3.5713,0.090607,0.14359,0.14284,1,0.284,1,0.05,0
0.049155,0.00070146,0.0084163,0.000285,0,0.00024395,8.0949e-06,3.2611e-20,0,3.5483,0.090724,0.14268,0.14193,1,0.285,1,0.05,0
0.048891,0.00067366,0.008535,0.000286,0,0.00024376,8.127e-06,3.3881e-20,0,3.5251,0.090846,0.14176,0.141,1,0.286,1,0.05,0
0.048623,0.0006455,0.0086554,0.000287,0,0.00024355,8.1596e-06,3.4728e-20,0,3.5015,0.090972,0.14083,0.14006,1,0.287,1,0.05,0
0.048351,0.00061697,0.0087778,0.000288,0,0.00024332,8.1924e-06,3.4728e-20,0,3.4777,0.091103,0.13988,0.1391,1,0.288,1,0.05,0
0.048073,0.00058808,0.0089021,0.000289,0,0.00024307,8.2257e-06,3.4305e-20,0,3.4535,0.091239,0.13892,0.13813,1,0.289,1,0.05,0
0.047791,0.00055883,0.0090284,0.00029,0,0.00024281,8.2593e-06,3.4728e-20,0,3.429,0.09138,0.13795,0.13716,1,0.29,1,0.05,0
0.047504,0.00052921,0.0091567,0.000291,0,0.00024253,8.2934e-06,3.3881e-20,0,3.4042,0.091527,0.13696,0.13617,1,0.291,1,0.05,0
0.047212,0.00049923,0.009287,0.000292,0,0.00024223,8.3278e-06,3.5152e-20,0,3.3791,0.091679,0.13597,0.13516,1,0.292,1,0.05,0
0.046916,0.00046888,0.0094195,0.000293,0,0.00024191,8.3627e-06,3.5152e-20,0,3.3538,0.091837,0.13496,0.13415,1,0.293,1,0.05,0
0.046615,0.00043817,0.0095542,0.000294,0,0.00024157,8.398e-06,3.4305e-20,0,3.3281,0.092001,0.13394,0.13312,1,0.294,1,0.05,0
0.04631,0.00040709,0.009691,0.000295,0,0.00024122,8.4338e-06,3.5152e-20,0,3.3021,0.092171,0.13291,0.13208,1,0.295,1,0.05,0
0.046,0.00037564,0.0098302,0.000296,0,0.00024085,8.47e-06,3.5152e-20,0,3.2759,0.092347,0.13186,0.13104,1,0.296,1,0.05,0
0.045686,0.00034383,0.0099716,0.000297,0,0.00024046,8.5067e-06,3.5575e-20,0,3.2494,0.092531,0.13081,0.12998,1,0.297,1,0.05,0
0.045367,0.00031165,0.010115,0.000298,0,0.00024005,8.544e-06,3.5999e-20,0,3.2226,0.092721,0.12975,0.1289,1,0.298,1,0.05,0
0.045044,0.00027912,0.010262,0.000299,0,0.00023963,8.5817e-06,3.5152e-20,0,3.1956,0.092918,0.12867,0.12782,1,0.299,1,0.05,0
0.044717,0.00024621,0.010411,0.0003,0,0.00023919,8.62e-06,3.4728e-20,0,3.1682,0.093122,0.12759,0.12673,1,0.3,1,0.05,0
0.044386,0.00021295,0.010562,0.000301,0,0.00023873,8.6589e-06,3.5152e-20,0,3.1407,0.093334,0.12649,0.12563,1,0.301,1,0.05,0
0.04405,0.00017932,0.010716,0.000302,0,0.00023826,8.6983e-06,3.5152e-20,0,3.1128,0.093553,0.12539,0.12452,1,0.302,1,0.05,0
0.04371,0.00014534,0.010873,0.000303,0,0.00023777,8.7384e-06,3.6422e-20,0,3.0848,0.093781,0.12427,0.12339,1,0.303,1,0.05,0
0.043366,0.000111,0.011032,0.000304,0,0.00023726,8.779e-06,3.5999e-20,0,3.0564,0.094017,0.12314,0.12226,1,0.304,1,0.05,0
0.043018,7.6306e-05,0.011195,0.000305,0,0.00023674,8.8203e-06,3.6422e-20,0,3.0279,0.094261,0.12201,0.12112,1,0.305,1,0.05,0
0.042667,4.1258e-05,0.01136,0.000306,0,0.0002362,8.8622e-06,3.6422e-20,0,2.9991,0.094514,0.12086,0.11997,1,0.306,1,0.05,0
0.042311,5.8598e-06,0.011528,0.000307,0,0.00023564,8.9048e-06,3.6422e-20,0,2.9701,0.094776,0.11971,0.11881,1,0.307,1,0.05,0
0.041952,-2.9886e-05,0.0117,0.000308,0,0.00023507,8.9481e-06,3.6422e-20,0,2.9408,0.095047,0.11855,0.11764,1,0.308,1,0.05,0
0.041588,-6.5977e-05,0.011875,0.000309,0,0.00023449,8.9921e-06,3.6422e-20,0,2.9114,0.095328,0.11738,0.11646,1,0.309,1,0.05,0
0.041222,-0.00010241,0.012053,0.00031,0,0.00023389,9.0368e-06,3.6422e-20,0,2.8817,0.095619,0.1162,0.11528,1,0.31,1,0.05,0
0.040852,-0.00013918,0.012234,0.000311,0,0.00023327,9.0823e-06,3.6422e-20,0,2.8519,0.095919,0.11501,0.11408,1,0.311,1,0.05,0
0.040478,-0.00017628,0.012419,0.000312,0,0.00023264,9.1285e-06,3.6422e-20,0,2.8218,0.09623,0.11382,0.11288,1,0.312,1,0.05,0
0.040101,-0.00021371,0.012607,0.000313,0,0.00023199,9.1755e-06,3.8116e-20,0,2.7916,0.096551,0.11262,0.11167,1,0.313,1,0.05,0
0.03972,-0.00025147,0.012799,0.000314,0,0.00023133,9.2234e-06,3.8116e-20,0,2.7612,0.096883,0.11141,0.11046,1,0.314,1,0.05,0
0.039337,-0.00028955,0.012995,0.000315,0,0.00023066,9.2721e-06,3.7269e-20,0,2.7306,0.097226,0.11019,0.10923,1,0.315,1,0.05,0
0.03895,-0.00032795,0.013195,0.000316,0,0.00022998,9.3216e-06,3.8116e-20,0,2.6999,0.09758,0.10897,0.10801,1,0.316,1,0.05,0
0.03856,-0.00036665,0.013398,0.000317,0,0.00022928,9.372e-06,3.8116e-20,0,2.669,0.097946,0.10774,0.10677,1,0.317,1,0.05,0
0.038168,-0.00040566,0.013606,0.000318,0,0.00022856,9.4234e-06,3.8116e-20,0,2.6379,0.098324,0.10651,0.10553,1,0.318,1,0.05,0
0.037773,-0.00044497,0.013819,0.000319,0,0.00022784,9.4756e-06,3.8964e-20,0,2.6067,0.098714,0.10527,0.10428,1,0.319,1,0.05,0
0.037374,-0.00048457,0.014035,0.00032,0,0.0002271,9.5288e-06,3.8964e-20,0,2.5754,0.099117,0.10402,0.10303,1,0.32,1,0.05,0
0.036974,-0.00052446,0.014256,0.000321,0,0.00022635,9.583e-06,3.8964e-20,0,2.5439,0.099532,0.10277,0.10177,1,0.321,1,0.05,0
0.036571,-0.00056462,0.014482,0.000322,0,0.00022559,9.6382e-06,3.9811e-20,0,2.5124,0.09996,0.10151,0.10051,1,0.322,1,0.05,0
0.036165,-0.00060506,0.014713,0.000323,0,0.00022481,9.6943e-06,3.9811e-20,0,2.4807,0.1004,0.10025,0.099243,1,0.323,1,0.05,0
0.035757,-0.00064576,0.014947,0.000324,0,0.00022403,9.7516e-06,3.9811e-20,0,2.4489,0.10086,0.098991,0.097973,1,0.324,1,0.05,0
0.035347,-0.00068672,0.015186,0.000325,0,0.00022323,9.8098e-06,3.9811e-20,0,2.4171,0.10133,0.097725,0.0967,1,0.325,1,0.05,0
0.034936,-0.00072791,0.01543,0.000326,0,0.00022243,9.8693e-06,4.0658e-20,0,2.3852,0.10181,0.096456,0.095424,1,0.326,1,0.05,0
0.034522,-0.00076934,0.015679,0.000327,0,0.00022161,9.9298e-06,4.1505e-20,0,2.3532,0.10231,0.095185,0.094145,1,0.327,1,0.05,0
0.034108,-0.00081097,0.015934,0.000328,0,0.00022079,9.9916e-06,3.9811e-20,0,2.3212,0.10282,0.093914,0.092867,1,0.328,1,0.05,0
0.033693,-0.0008528,0.016196,0.000329,0,0.00021996,1.0055e-05,4.1505e-20,0,2.2892,0.10335,0.092642,0.091588,1,0.329,1,0.05,0
0.033276,-0.00089482,0.016463,0.00033,0,0.00021913,1.0119e-05,4.2352e-20,0,2.2573,0.1039,0.09137,0.090309,1,0.33,1,0.05,0
0.032859,-0.00093702,0.016738,0.000331,0,0.00021829,1.0184e-05,4.1505e-20,0,2.2253,0.10446,0.090099,0.089031,1,0.331,1,0.05,0
0.03244,-0.00097941,0.017019,0.000332,0,0.00021744,1.0251e-05,4.2352e-20,0,2.1933,0.10504,0.088827,0.087752,1,0.332,1,0.05,0
0.032021,-0.001022,0.017307,0.000333,0,0.00021658,1.0319e-05,4.3199e-20,0,2.1613,0.10564,0.087556,0.086473,1,0.333,1,0.05,0
0.031601,-0.0010647,0.017603,0.000334,0,0.00021572,1.0389e-05,4.3199e-20,0,2.1293,0.10625,0.086285,0.085195,1,0.334,1,0.05,0
0.03118,-0.0011075,0.017906,0.000335,0,0.00021485,1.0459e-05,4.3199e-20,0,2.0974,0.10688,0.085015,0.083918,1,0.335,1,0.05,0
0.030759,-0.0011505,0.018217,0.000336,0,0.00021398,1.0532e-05,4.3199e-20,0,2.0655,0.10752,0.083747,0.082642,1,0.336,1,0.05,0
0.030337,-0.0011937,0.018535,0.000337,0,0.0002131,1.0605e-05,4.2352e-20,0,2.0336,0.10819,0.082479,0.081368,1,0.337,1,0.05,0
0.029915,-0.0012369,0.018863,0.000338,0,0.00021221,1.068e-05,4.4893e-20,0,2.0018,0.10887,0.081214,0.080095,1,0.338,1,0.05,0
0.029493,-0.0012802,0.019198,0.000339,0,0.00021132,1.0757e-05,4.4046e-20,0,1.97,0.10957,0.07995,0.078823,1,0.339,1,0.05,0
0.02907,-0.0013237,0.019543,0.00034,0,0.00021043,1.0835e-05,4.4893e-20,0,1.9382,0.11029,0.078688,0.077554,1,0.34,1,0.05,0
0.028647,-0.0013672,0.019897,0.000341,0,0.00020953,1.0914e-05,4.4893e-20,0,1.9065,0.11103,0.077428,0.076287,1,0.341,1,0.05,0
0.028225,-0.0014107,0.020261,0.000342,0,0.00020863,1.0995e-05,4.574e-20,0,1.8749,0.11178,0.076172,0.075023,1,0.342,1,0.05,0
0.027802,-0.0014543,0.020634,0.000343,0,0.00020772,1.1077e-05,4.6587e-20,0,1.8434,0.11256,0.074918,0.073762,1,0.343,1,0.05,0
0.02738,-0.0014979,0.021018,0.000344,0,0.00020681,1.1161e-05,4.7434e-20,0,1.8119,0.11335,0.073668,0.072504,1,0.344,1,0.05,0
0.026958,-0.0015416,0.021412,0.000345,0,0.0002059,1.1247e-05,4.6587e-20,0,1.7805,0.11416,0.072421,0.07125,1,0.345,1,0.05,0
0.026536,-0.0015852,0.021818,0.000346,0,0.00020499,1.1334e-05,4.7434e-20,0,1.7493,0.11499,0.071178,0.07,1,0.346,1,0.05,0
0.026116,-0.0016288,0.022235,0.000347,0,0.00020407,1.1423e-05,4.8281e-20,0,1.7181,0.11584,0.06994,0.068753,1,0.347,1,0.05,0
0.025696,-0.0016723,0.022664,0.000348,0,0.00020315,1.1513e-05,4.7434e-20,0,1.687,0.1167,0.068705,0.067511,1,0.348,1,0.05,0
0.025276,-0.0017158,0.023105,0.000349,0,0.00020223,1.1605e-05,4.7434e-20,0,1.6561,0.11759,0.067475,0.066273,1,0.349,1,0.05,0
0.024858,-0.0017592,0.023559,0.00035,0,0.0002013,1.1698e-05,4.9975e-20,0,1.6252,0.11849,0.06625,0.06504,1,0.35,1,0.05,0
0.02444,-0.0018025,0.024026,0.000351,0,0.00020038,1.1793e-05,4.9128e-20,0,1.5945,0.11941,0.065029,0.063812,1,0.351,1,0.05,0
0.024024,-0.0018456,0.024507,0.000352,0,0.00019945,1.189e-05,4.9128e-20,0,1.5639,0.12036,0.063814,0.062589,1,0.352,1,0.05,0
0.023608,-0.0018886,0.025002,0.000353,0,0.00019852,1.1989e-05,4.9975e-20,0,1.5335,0.12132,0.062604,0.061371,1,0.353,1,0.05,0
0.023194,-0.0019314,0.025512,0.000354,0,0.00019759,1.2089e-05,4.9128e-20,0,1.5031,0.12229,0.0614,0.060159,1,0.354,1,0.05,0
0.022782,-0.0019741,0.026037,0.000355,0,0.00019666,1.219e-05,4.9975e-20,0,1.473,0.12329,0.060201,0.058953,1,0.355,1,0.05,0
0.022371,-0.0020164,0.026578,0.000356,0,0.00019574,1.2294e-05,4.9975e-20,0,1.4429,0.1243,0.059008,0.057752,1,0.356,1,0.05,0
0.021961,-0.0020586,0.027136,0.000357,0,0.00019481,1.2398e-05,5.0822e-20,0,1.413,0.12533,0.057821,0.056558,1,0.357,1,0.05,0
0.021553,-0.0021004,0.02771,0.000358,0,0.00019387,1.2505e-05,5.1669e-20,0,1.3833,0.12637,0.05664,0.055369,1,0.358,1,0.05,0
0.021147,-0.002142,0.028302,0.000359,0,0.00019295,1.2613e-05,5.0822e-20,0,1.3537,0.12743,0.055466,0.054187,1,0.359,1,0.05,0
0.020742,-0.0021832,0.028913,0.00036,0,0.00019202,1.2723e-05,5.3363e-20,0,1.3243,0.12851,0.054298,0.053011,1,0.36,1,0.05,0
0.02034,-0.002224,0.029543,0.000361,0,0.00019109,1.2834e-05,5.0822e-20,0,1.2951,0.1296,0.053137,0.051842,1,0.361,1,0.05,0
0.01994,-0.0022644,0.030192,0.000362,0,0.00019016,1.2946e-05,5.1669e-20,0,1.266,0.1307,0.051983,0.05068,1,0.362,1,0.05,0
0.019541,-0.0023044,0.030861,0.000363,0,0.00018923,1.306e-05,5.5057e-20,0,1.2371,0.13182,0.050836,0.049524,1,0.363,1,0.05,0
0.019145,-0.002344,0.031552,0.000364,0,0.0001883,1.3176e-05,5.421e-20,0,1.2084,0.13295,0.049695,0.048375,1,0.364,1,0.05,0
0.018751,-0.002383,0.032265,0.000365,0,0.00018738,1.3293e-05,5.5057e-20,0,1.1798,0.13409,0.048561,0.047233,1,0.365,1,0.05,0
0.01836,-0.0024215,0.033001,0.000366,0,0.00018645,1.3411e-05,5.5057e-20,0,1.1514,0.13525,0.047434,0.046098,1,0.366,1,0.05,0
0.01797,-0.0024594,0.03376,0.000367,0,0.00018553,1.3531e-05,5.5057e-20,0,1.1232,0.13641,0.046314,0.044971,1,0.367,1,0.05,0
0.017583,-0.0024967,0.034543,0.000368,0,0.0001846,1.3651e-05,5.5904e-20,0,1.0952,0.13757,0.045202,0.04385,1,0.368,1,0.05,0
0.017199,-0.0025334,0.035352,0.000369,0,0.00018368,1.3773e-05,5.6751e-20,0,1.0673,0.13875,0.044096,0.042736,1,0.369,1,0.05,0
0.016817,-0.0025694,0.036187,0.00037,0,0.00018276,1.3896e-05,5.5904e-20,0,1.0396,0.13993,0.042997,0.041629,1,0.37,1,0.05,0
0.016438,-0.0026047,0.037049,0.000371,0,0.00018184,1.402e-05,5.8445e-20,0,1.0121,0.14111,0.041905,0.040529,1,0.371,1,0.05,0
0.016062,-0.0026392,0.037939,0.000372,0,0.00018092,1.4145e-05,5.7598e-20,0,0.98476,0.14229,0.04082,0.039436,1,0.372,1,0.05,0
0.015688,-0.0026729,0.038858,0.000373,0,0.00018,1.427e-05,5.9292e-20,0,0.9576,0.14348,0.039742,0.03835,1,0.373,1,0.05,0
0.015317,-0.0027058,0.039807,0.000374,0,0.00017908,1.4397e-05,5.9292e-20,0,0.93061,0.14466,0.038672,0.037271,1,0.374,1,0.05,0
0.014949,-0.0027378,0.040787,0.000375,0,0.00017817,1.4523e-05,6.0139e-20,0,0.90379,0.14584,0.037608,0.036199,1,0.375,1,0.05,0
0.014584,-0.0027689,0.041799,0.000376,0,0.00017725,1.4651e-05,5.9292e-20,0,0.87715,0.14701,0.036551,0.035133,1,0.376,1,0.05,0
0.014221,-0.002799,0.042845,0.000377,0,0.00017634,1.4778e-05,6.0986e-20,0,0.85067,0.14817,0.0355,0.034075,1,0.377,1,0.05,0
0.013862,-0.0028282,0.043924,0.000378,0,0.00017542,1.4906e-05,6.268e-20,0,0.82437,0.14932,0.034457,0.033023,1,0.378,1,0.05,0
0.013506,-0.0028563,0.045039,0.000379,0,0.00017451,1.5033e-05,6.1833e-20,0,0.79823,0.15045,0.03342,0.031979,1,0.379,1,0.05,0
0.013152,-0.0028833,0.046191,0.00038,0,0.00017359,1.5161e-05,6.268e-20,0,0.77226,0.15157,0.03239,0.03094,1,0.38,1,0.05,0
0.012802,-0.0029091,0.04738,0.000381,0,0.00017268,1.5288e-05,6.268e-20,0,0.74645,0.15267,0.031367,0.029909,1,0.381,1,0.05,0
0.012455,-0.0029339,0.048608,0.000382,0,0.00017177,1.5414e-05,6.5222e-20,0,0.72081,0.15375,0.03035,0.028884,1,0.382,1,0.05,0
0.012111,-0.0029574,0.049876,0.000383,0,0.00017086,1.554e-05,6.4375e-20,0,0.69534,0.1548,0.02934,0.027865,1,0.383,1,0.05,0
0.011771,-0.0029798,0.051138,0.000384,0,0.00016994,1.5665e-05,6.6069e-20,0,0.67007,0.15583,0.028337,0.026855,1,0.384,1,0.05,0
0.011434,-0.0030022,0.052439,0.000385,0,0.00016904,1.5789e-05,6.7763e-20,0,0.64509,0.15683,0.027347,0.025856,1,0.385,1,0.05,0
0.0111,-0.003024,0.053729,0.000386,0,0.00016814,1.5912e-05,6.6916e-20,0,0.62041,0.1578,0.026368,0.02487,1,0.386,1,0.05,0
0.01077,-0.0030465,0.055058,0.000387,0,0.00016725,1.6037e-05,6.4375e-20,0,0.59617,0.1588,0.025406,0.023901,1,0.387,1,0.05,0
0.010443,-0.0030687,0.056428,0.000388,0,0.00016637,1.6163e-05,6.6916e-20,0,0.57229,0.15979,0.024459,0.022946,1,0.388,1,0.05,0
0.010121,-0.0030906,0.057841,0.000389,0,0.0001655,1.6289e-05,6.861e-20,0,0.54876,0.16078,0.023526,0.022006,1,0.389,1,0.05,0
0.0098016,-0.003112,0.059297,0.00039,0,0.00016463,1.6416e-05,7.0304e-20,0,0.52555,0.16175,0.022605,0.021077,1,0.39,1,0.05,0
0.0094867,-0.0031327,0.060798,0.000391,0,0.00016378,1.6543e-05,7.0304e-20,0,0.50265,0.16271,0.021697,0.020162,1,0.391,1,0.05,0
0.0091758,-0.0031526,0.062344,0.000392,0,0.00016293,1.667e-05,6.9457e-20,0,0.48004,0.16366,0.020801,0.019258,1,0.392,1,0.05,0
0.0088689,-0.0031715,0.063937,0.000393,0,0.00016208,1.6797e-05,7.0304e-20,0,0.45771,0.16458,0.019915,0.018366,1,0.393,1,0.05,0
0.0085663,-0.0031893,0.065578,0.000394,0,0.00016125,1.6924e-05,7.0304e-20,0,0.43566,0.16548,0.019041,0.017484,1,0.394,1,0.05,0
0.0082681,-0.003206,0.067263,0.000395,0,0.00016041,1.7049e-05,7.0304e-20,0,0.41387,0.16636,0.018177,0.016613,1,0.395,1,0.05,0
0.0079742,-0.0032214,0.068994,0.000396,0,0.00015958,1.7174e-05,7.0304e-20,0,0.39232,0.1672,0.017323,0.015752,1,0.396,1,0.05,0
0.0076847,-0.0032353,0.070776,0.000397,0,0.00015875,1.7298e-05,7.1998e-20,0,0.37102,0.16801,0.016478,0.0149,1,0.397,1,0.05,0
0.0073999,-0.0032478,0.072611,0.000398,0,0.00015793,1.742e-05,7.0304e-20,0,0.34995,0.16877,0.015643,0.014058,1,0.398,1,0.05,0
0.0071199,-0.0032587,0.074464,0.000399,0,0.00015711,1.754e-05,7.2845e-20,0,0.32913,0.1695,0.014817,0.013225,1,0.399,1,0.05,0
0.0068443,-0.0032679,0.076369,0.0004,0,0.00015629,1.7658e-05,7.2845e-20,0,0.3085,0.17017,0.013999,0.012401,1,0.4,1,0.05,0
0.0065738,-0.0032755,0.078296,0.000401,0,0.00015548,1.7773e-05,7.2845e-20,0,0.28811,0.1708,0.013191,0.011586,1,0.401,1,0.05,0
0.0063079,-0.0032812,0.08028,0.000402,0,0.00015466,1.7886e-05,7.2845e-20,0,0.26792,0.17137,0.012391,0.010778,1,0.402,1,0.05,0
0.0060473,-0.0032851,0.082322,0.000403,0,0.00015385,1.7995e-05,7.4539e-20,0,0.24798,0.17187,0.011601,0.0099813,1,0.403,1,0.05,0
0.005792,-0.003287,0.084422,0.000404,0,0.00015305,1.8101e-05,7.5386e-20,0,0.22829,0.1723,0.01082,0.0091941,1,0.404,1,0.05,0
0.0055422,-0.0032869,0.086583,0.000405,0,0.00015224,1.8202e-05,7.3692e-20,0,0.20886,0.17266,0.01005,0.0084176,1,0.405,1,0.05,0
0.005298,-0.0032849,0.088806,0.000406,0,0.00015145,1.83e-05,7.5386e-20,0,0.18971,0.17293,0.0092914,0.0076521,1,0.406,1,0.05,0
0.0050596,-0.0032809,0.091091,0.000407,0,0.00015066,1.8392e-05,7.4539e-20,0,0.17085,0.17312,0.0085441,0.0068982,1,0.407,1,0.05,0
0.004827,-0.0032749,0.09344,0.000408,0,0.00014987,1.848e-05,7.6233e-20,0,0.1523,0.17322,0.0078087,0.0061563,1,0.408,1,0.05,0
0.0046005,-0.0032672,0.095807,0.000409,0,0.00014909,1.8562e-05,7.6233e-20,0,0.13406,0.17323,0.0070859,0.0054272,1,0.409,1,0.05,0
0.0043795,-0.0032576,0.098239,0.00041,0,0.00014832,1.8638e-05,7.7927e-20,0,0.1161,0.17315,0.0063746,0.0047095,1,0.41,1,0.05,0
0.0041646,-0.0032461,0.10074,0.000411,0,0.00014756,1.8708e-05,7.6233e-20,0,0.098496,0.17296,0.0056771,0.0040057,1,0.411,1,0.05,0
0.003956,-0.003233,0.10327,0.000412,0,0.0001468,1.8771e-05,7.7927e-20,0,0.081258,0.17267,0.0049944,0.0033166,1,0.412,1,0.05,0
0.0037533,-0.0032181,0.10587,0.000413,0,0.00014606,1.8828e-05,7.7927e-20,0,0.064369,0.17227,0.0043255,0.0026414,1,0.413,1,0.05,0
0.0035569,-0.0032015,0.10854,0.000414,0,0.00014532,1.8877e-05,7.7927e-20,0,0.047888,0.17175,0.0036731,0.0019826,1,0.414,1,0.05,0
0.0033671,-0.0031833,0.11129,0.000415,0,0.0001446,1.8919e-05,7.7927e-20,0,0.031831,0.17112,0.0030376,0.0013408,1,0.415,1,0.05,0
0.0031837,-0.0031636,0.11411,0.000416,0,0.00014389,1.8954e-05,7.9621e-20,0,0.016218,0.17037,0.0024199,0.00071665,1,0.416,1,0.05,0
0.003007,-0.0031423,0.11701,0.000417,0,0.0001432,1.8981e-05,7.9621e-20,0,0.0010697,0.1695,0.0018208,0.00011114,1,0.417,1,0.05,0
0.0028368,-0.0031197,0.11999,0.000418,0,0.00014252,1.8999e-05,7.9621e-20,0,-0.013598,0.16851,0.0012409,-0.00047517,1,0.418,1,0.05,0
0.0026733,-0.0030958,0.12306,0.000419,0,0.00014185,1.901e-05,7.9621e-20,0,-0.027774,0.1674,0.00068089,-0.0010418,1,0.419,1,0.05,0
0.0025163,-0.0030707,0.12621,0.00042,0,0.00014121,1.9013e-05,7.7927e-20,0,-0.041438,0.16617,0.00014136,-0.0015879,1,0.42,1,0.05,0
0.0023659,-0.0030444,0.12946,0.000421,0,0.00014058,1.9008e-05,7.7927e-20,0,-0.05458,0.16482,-0.00037717,-0.0021132,1,0.421,1,0.05,0
0.0022221,-0.003017,0.13281,0.000422,0,0.00013997,1.8995e-05,7.7927e-20,0,-0.067187,0.16335,-0.00087416,-0.0026171,1,0.422,1,0.05,0
0.0020847,-0.0029887,0.13627,0.000423,0,0.00013937,1.8975e-05,7.7927e-20,0,-0.079253,0.16177,-0.0013494,-0.0030993,1,0.423,1,0.05,0
0.0019536,-0.0029594,0.13984,0.000424,0,0.0001388,1.8946e-05,7.6233e-20,0,-0.090772,0.16008,-0.0018026,-0.0035597,1,0.424,1,0.05,0
0.0018286,-0.0029293,0.14354,0.000425,0,0.00013825,1.891e-05,7.7927e-20,0,-0.10174,0.15827,-0.0022335,-0.003998,1,0.425,1,0.05,0
0.0017097,-0.0028984,0.14737,0.000426,0,0.00013771,1.8867e-05,7.7927e-20,0,-0.11216,0.15635,-0.0026422,-0.0044143,1,0.426,1,0.05,0
0.0015966,-0.0028667,0.15136,0.000427,0,0.0001372,1.8816e-05,7.7927e-20,0,-0.12203,0.15433,-0.0030288,-0.0048088,1,0.427,1,0.05,0
0.0014889,-0.0028343,0.15553,0.000428,0,0.0001367,1.8758e-05,7.6233e-20,0,-0.13136,0.15219,-0.0033934,-0.0051816,1,0.428,1,0.05,0
0.0013864,-0.0028011,0.15988,0.000429,0,0.00013623,1.8692e-05,7.9621e-20,0,-0.14017,0.14994,-0.0037366,-0.0055334,1,0.429,1,0.05,0
0.0012886,-0.0027672,0.16447,0.00043,0,0.00013577,1.8619e-05,7.6233e-20,0,-0.14846,0.14758,-0.0040589,-0.0058646,1,0.43,1,0.05,0
0.001195,-0.0027326,0.16931,0.000431,0,0.00013532,1.8539e-05,7.6233e-20,0,-0.15626,0.1451,-0.0043611,-0.0061763,1,0.431,1,0.05,0
0.0011049,-0.0026971,0.17447,0.000432,0,0.00013489,1.845e-05,7.6233e-20,0,-0.1636,0.14249,-0.0046441,-0.0064694,1,0.432,1,0.05,0
0.0010176,-0.0026608,0.17999,0.000433,0,0.00013447,1.8352e-05,7.6233e-20,0,-0.17051,0.13972,-0.0049093,-0.0067453,1,0.433,1,0.05,0
0.00093183,-0.0026234,0.18596,0.000434,0,0.00013406,1.8244e-05,7.4539e-20,0,-0.17704,0.13679,-0.005158,-0.0070058,1,0.434,1,0.05,0
0.00084654,-0.0025848,0.19249,0.000435,0,0.00013365,1.8123e-05,7.4539e-20,0,-0.18322,0.13364,-0.0053921,-0.0072525,1,0.435,1,0.05,0
-0.0007839,-0.0025913,0.20209,0.000436,0,0.00012647,1.7985e-05,7.3692e-20,0,-0.31299,0.12984,-0.010563,-0.012441,1,0.436,1,0.05,0
-0.0013336,-0.0025475,0.21443,0.000437,0,0.00012386,1.7795e-05,7.2845e-20,0,-0.35483,0.12505,-0.012211,-0.014114,1,0.437,1,0.05,0
-0.0017184,-0.0024869,0.23031,0.000438,0,0.00012189,1.7514e-05,7.1151e-20,0,-0.38173,0.11873,-0.013254,-0.015188,1,0.438,1,0.05,0
-0.0019782,-0.0024222,0.24603,0.000439,0,0.00012042,1.7209e-05,7.1151e-20,0,-0.39853,0.11233,-0.013897,-0.015859,1,0.439,1,0.05,0
-0.0019875,-0.0023607,0.25784,0.00044,0,0.00012009,1.6967e-05,7.0304e-20,0,-0.39684,0.10738,-0.013809,-0.01579,1,0.44,1,0.05,0
7.1373e-05,-0.0022428,0.2637,0.000441,0,0.00012958,1.6812e-05,7.2845e-20,0,-0.23168,0.10435,-0.0071943,-0.0091852,1,0.441,1,0.05,0
0.00026785,-0.00219,0.27116,0.000442,0,0.0001304,1.6647e-05,6.9457e-20,0,-0.21526,0.10103,-0.0065277,-0.0085282,1,0.442,1,0.05,0
0.00034749,-0.0021419,0.27895,0.000443,0,0.00013068,1.6493e-05,7.0304e-20,0,-0.20803,0.097859,-0.0062292,-0.0082388,1,0.443,1,0.05,0
0.00041795,-0.0020947,0.28699,0.000444,0,0.00013094,1.6348e-05,6.7763e-20,0,-0.20136,0.094803,-0.0059538,-0.0079716,1,0.444,1,0.05,0
0.00048785,-0.0020486,0.29519,0.000445,0,0.0001312,1.6211e-05,6.6916e-20,0,-0.19458,0.091868,-0.0056751,-0.0077001,1,0.445,1,0.05,0
0.00055848,-0.0020034,0.30349,0.000446,0,0.00013149,1.6081e-05,6.861e-20,0,-0.1876,0.089046,-0.0053895,-0.0074206,1,0.446,1,0.05,0
0.00063003,-0.0019592,0.31188,0.000447,0,0.00013179,1.5957e-05,6.6069e-20,0,-0.18041,0.086329,-0.0050966,-0.0071329,1,0.447,1,0.05,0
0.00070246,-0.0019159,0.32035,0.000448,0,0.00013212,1.5839e-05,6.6069e-20,0,-0.17302,0.083711,-0.0047969,-0.0068373,1,0.448,1,0.05,0
0.00077564,-0.0018736,0.32891,0.000449,0,0.00013246,1.5726e-05,6.6069e-20,0,-0.16545,0.081184,-0.004491,-0.0065346,1,0.449,1,0.05,0
0.00084944,-0.0018321,0.33755,0.00045,0,0.00013283,1.5618e-05,6.6069e-20,0,-0.15772,0.078743,-0.0041798,-0.0062254,1,0.45,1,0.05,0
0.00092375,-0.0017915,0.34626,0.000451,0,0.00013322,1.5515e-05,6.3527e-20,0,-0.14985,0.076385,-0.0038638,-0.0059105,1,0.451,1,0.05,0
0.00099847,-0.0017516,0.35505,0.000452,0,0.00013362,1.5416e-05,6.4375e-20,0,-0.14184,0.074104,-0.0035437,-0.0055905,1,0.452,1,0.05,0
0.0010735,-0.0017124,0.36391,0.000453,0,0.00013405,1.5322e-05,6.3527e-20,0,-0.13373,0.071897,-0.0032201,-0.005266,1,0.453,1,0.05,0
0.0011488,-0.0016739,0.37285,0.000454,0,0.0001345,1.5231e-05,6.268e-20,0,-0.12551,0.06976,-0.0028935,-0.0049375,1,0.454,1,0.05,0
0.0012243,-0.001636,0.38185,0.000455,0,0.00013496,1.5144e-05,6.268e-20,0,-0.11721,0.06769,-0.0025643,-0.0046055,1,0.455,1,0.05,0
0.0012998,-0.0015988,0.39091,0.000456,0,0.00013545,1.5061e-05,6.268e-20,0,-0.10883,0.065685,-0.002233,-0.0042706,1,0.456,1,0.05,0
0.0013755,-0.0015621,0.40003,0.000457,0,0.00013596,1.4982e-05,6.1833e-20,0,-0.10038,0.063742,-0.0019001,-0.0039331,1,0.457,1,0.05,0
0.0014511,-0.001526,0.4092,0.000458,0,0.00013649,1.4905e-05,6.1833e-20,0,-0.091887,0.061857,-0.001566,-0.0035935,1,0.458,1,0.05,0
0.0015266,-0.0014905,0.41843,0.000459,0,0.00013704,1.4832e-05,6.0986e-20,0,-0.083347,0.060029,-0.0012312,-0.0032522,1,0.459,1,0.05,0
0.0016021,-0.0014555,0.42769,0.00046,0,0.00013761,1.4762e-05,6.268e-20,0,-0.074773,0.058256,-0.00089584,-0.0029096,1,0.46,1,0.05,0
0.0016773,-0.001421,0.437,0.000461,0,0.00013821,1.4695e-05,6.0986e-20,0,-0.066176,0.056535,-0.00056049,-0.0025662,1,0.461,1,0.05,0
0.0017523,-0.0013871,0.44635,0.000462,0,0.00013882,1.463e-05,6.1833e-20,0,-0.057566,0.054864,-0.00022546,-0.0022222,1,0.462,1,0.05,0
0.001827,-0.0013536,0.45572,0.000463,0,0.00013947,1.4568e-05,6.1833e-20,0,-0.048951,0.053241,0.00010891,-0.0018781,1,0.463,1,0.05,0
0.0019014,-0.0013205,0.46512,0.000464,0,0.00014013,1.4509e-05,6.0986e-20,0,-0.040341,0.051665,0.00044227,-0.0015342,1,0.464,1,0.05,0
0.0019754,-0.001288,0.47454,0.000465,0,0.00014082,1.4452e-05,6.0986e-20,0,-0.031743,0.050134,0.00077431,-0.0011908,1,0.465,1,0.05,0
0.002049,-0.0012559,0.48397,0.000466,0,0.00014154,1.4397e-05,6.0139e-20,0,-0.023167,0.048647,0.0011047,-0.00084833,1,0.466,1,0.05,0
0.0021221,-0.0012242,0.49342,0.000467,0,0.00014228,1.4345e-05,5.9292e-20,0,-0.01462,0.047201,0.0014332,-0.00050705,1,0.467,1,0.05,0
0.0021946,-0.001193,0.50287,0.000468,0,0.00014305,1.4295e-05,5.9292e-20,0,-0.0061098,0.045796,0.0017594,-0.00016728,1,0.468,1,0.05,0
0.0022666,-0.0011622,0.51232,0.000469,0,0.00014384,1.4247e-05,5.9292e-20,0,0.0023554,0.04443,0.0020831,0.00017067,1,0.469,1,0.05,0
0.0023379,-0.0011318,0.52177,0.00047,0,0.00014467,1.4201e-05,5.7598e-20,0,0.010768,0.043103,0.002404,0.0005065,1,0.47,1,0.05,0
0.0024086,-0.0011019,0.5312,0.000471,0,0.00014552,1.4157e-05,5.7598e-20,0,0.019122,0.041812,0.0027218,0.00083994,1,0.471,1,0.05,0
0.0024785,-0.0010724,0.54062,0.000472,0,0.0001464,1.4115e-05,5.7598e-20,0,0.02741,0.040557,0.0030363,0.0011707,1,0.472,1,0.05,0
0.0025477,-0.0010433,0.55002,0.000473,0,0.00014732,1.4075e-05,5.8445e-20,0,0.035624,0.039337,0.0033473,0.0014985,1,0.473,1,0.05,0
0.0026162,-0.0010147,0.55939,0.000474,0,0.00014827,1.4036e-05,5.6751e-20,0,0.043758,0.03815,0.0036545,0.0018231,1,0.474,1,0.05,0
0.0026837,-0.00098642,0.56873,0.000475,0,0.00014925,1.4e-05,5.7598e-20,0,0.051807,0.036996,0.0039576,0.0021443,1,0.475,1,0.05,0
0.0027504,-0.00095859,0.57803,0.000476,0,0.00015026,1.3965e-05,5.8445e-20,0,0.059763,0.035874,0.0042565,0.0024617,1,0.476,1,0.05,0
0.0028163,-0.00093118,0.58729,0.000477,0,0.00015131,1.3931e-05,5.5904e-20,0,0.067621,0.034783,0.0045509,0.0027752,1,0.477,1,0.05,0
0.0028811,-0.00090418,0.5965,0.000478,0,0.0001524,1.3899e-05,5.9292e-20,0,0.075375,0.033721,0.0048406,0.0030844,1,0.478,1,0.05,0
0.002945,-0.00087759,0.60566,0.000479,0,0.00015353,1.3869e-05,5.9292e-20,0,0.083019,0.03269,0.0051255,0.0033893,1,0.479,1,0.05,0
0.0030078,-0.00085142,0.61476,0.00048,0,0.00015469,1.384e-05,5.5904e-20,0,0.090548,0.031686,0.0054052,0.0036896,1,0.48,1,0.05,0
0.0030697,-0.00082566,0.62379,0.000481,0,0.0001559,1.3813e-05,5.6751e-20,0,0.097957,0.030711,0.0056798,0.003985,1,0.481,1,0.05,0
0.0031304,-0.00080032,0.63276,0.000482,0,0.00015715,1.3787e-05,5.5904e-20,0,0.10524,0.029762,0.0059489,0.0042755,1,0.482,1,0.05,0
0.00319,-0.0007754,0.64166,0.000483,0,0.00015845,1.3763e-05,5.5904e-20,0,0.11239,0.02884,0.0062125,0.0045606,1,0.483,1,0.05,0
0.0032484,-0.00075089,0.65048,0.000484,0,0.00015979,1.374e-05,5.6751e-20,0,0.11941,0.027944,0.0064703,0.0048404,1,0.484,1,0.05,0
0.0033057,-0.0007268,0.65921,0.000485,0,0.00016117,1.3718e-05,5.8445e-20,0,0.12629,0.027073,0.0067222,0.0051147,1,0.485,1,0.05,0
0.0033618,-0.00070314,0.66786,0.000486,0,0.00016261,1.3698e-05,5.6751e-20,0,0.13303,0.026226,0.0069681,0.0053831,1,0.486,1,0.05,0
0.0034167,-0.00067989,0.67642,0.000487,0,0.0001641,1.3679e-05,5.6751e-20,0,0.13962,0.025403,0.0072078,0.0056457,1,0.487,1,0.05,0
0.0034703,-0.00065706,0.68488,0.000488,0,0.00016564,1.3661e-05,5.6751e-20,0,0.14605,0.024603,0.0074412,0.0059022,1,0.488,1,0.05,0
0.0035226,-0.00063465,0.69325,0.000489,0,0.00016724,1.3644e-05,5.5904e-20,0,0.15234,0.023827,0.0076683,0.0061525,1,0.489,1,0.05,0
0.0035741,-0.00061276,0.70146,0.00049,0,0.00016889,1.3629e-05,5.7598e-20,0,0.15848,0.023076,0.0078898,0.0063973,1,0.49,1,0.05,0
0.0036238,-0.00059132,0.70956,0.000491,0,0.00017059,1.3615e-05,5.5904e-20,0,0.16443,0.022346,0.0081035,0.0066344,1,0.491,1,0.05,0
0.003672,-0.0005703,0.71755,0.000492,0,0.00017236,1.3602e-05,5.5904e-20,0,0.17021,0.021638,0.00831,0.0068645,1,0.492,1,0.05,0
0.0037188,-0.0005497,0.72543,0.000493,0,0.00017418,1.359e-05,5.5904e-20,0,0.17582,0.02095,0.0085096,0.0070877,1,0.493,1,0.05,0
0.0037642,-0.00052952,0.73319,0.000494,0,0.00017607,1.358e-05,5.5904e-20,0,0.18125,0.020283,0.0087023,0.0073041,1,0.494,1,0.05,0
0.0038081,-0.00050976,0.74083,0.000495,0,0.00017803,1.357e-05,5.5904e-20,0,0.18652,0.019635,0.0088881,0.0075137,1,0.495,1,0.05,0
0.0038513,-0.00049051,0.74831,0.000496,0,0.00018005,1.3562e-05,5.5904e-20,0,0.19164,0.019009,0.0090684,0.0077176,1,0.496,1,0.05,0
0.0038926,-0.0004717,0.75565,0.000497,0,0.00018214,1.3555e-05,5.5904e-20,0,0.19656,0.018402,0.0092405,0.0079134,1,0.497,1,0.05,0
0.0039322,-0.0004533,0.76288,0.000498,0,0.00018431,1.3549e-05,5.5057e-20,0,0.20129,0.017813,0.0094052,0.0081017,1,0.498,1,0.05,0
0.0039704,-0.00043533,0.76997,0.000499,0,0.00018654,1.3544e-05,5.5904e-20,0,0.20584,0.017242,0.0095627,0.0082827,1,0.499,1,0.05,0
0.004007,-0.00041776,0.77693,0.0005,0,0.00018886,1.354e-05,5.5057e-20,0,0.21021,0.016688,0.0097131,0.0084566,1,0.5,1,0.05,0
0.0040422,-0.00040061,0.78376,0.000501,0,0.00019126,1.3537e-05,5.6751e-20,0,0.21441,0.01615,0.0098565,0.0086234,1,0.501,1,0.05,0
0.0040759,-0.00038387,0.79045,0.000502,0,0.00019374,1.3535e-05,5.421e-20,0,0.21842,0.015629,0.0099929,0.0087831,1,0.502,1,0.05,0
0.0041087,-0.00036761,0.79697,0.000503,0,0.0001963,1.3534e-05,5.5904e-20,0,0.2223,0.015127,0.010124,0.0089372,1,0.503,1,0.05,0
0.0030802,-0.00038657,0.80635,0.000504,0,0.00018272,1.3535e-05,5.5057e-20,0,0.15012,0.014442,0.0072039,0.0060492,1,0.504,1,0.05,0
0.0035431,-0.00035493,0.81194,0.000505,0,0.00019198,1.3535e-05,5.5904e-20,0,0.18489,0.01401,0.0085731,0.0074391,1,0.505,1,0.05,0
0.003822,-0.00033093,0.81748,0.000506,0,0.00019862,1.3537e-05,5.421e-20,0,0.20622,0.013588,0.0094044,0.0082913,1,0.506,1,0.05,0
0.0039967,-0.00031134,0.82298,0.000507,0,0.00020382,1.354e-05,5.5057e-20,0,0.21996,0.013175,0.009932,0.0088398,1,0.507,1,0.05,0
0.0041101,-0.00029431,0.82848,0.000508,0,0.00020822,1.3543e-05,5.7598e-20,0,0.22922,0.012766,0.01028,0.0092092,1,0.508,1,0.05,0
0.0032776,-0.00030872,0.83651,0.000509,0,0.00019612,1.3549e-05,5.6751e-20,0,0.1716,0.012198,0.0079445,0.0069037,1,0.509,1,0.05,0
0.0036615,-0.00028211,0.8414,0.00051,0,0.00020558,1.3553e-05,5.6751e-20,0,0.19998,0.011831,0.0090589,0.0080379,1,0.51,1,0.05,0
0.0039083,-0.00026119,0.84621,0.000511,0,0.00021284,1.3558e-05,5.5057e-20,0,0.21845,0.011475,0.0097771,0.0087759,1,0.511,1,0.05,0
0.0040711,-0.00024383,0.851,0.000512,0,0.00021881,1.3564e-05,5.5057e-20,0,0.23087,0.011128,0.010253,0.0092718,1,0.512,1,0.05,0
0.0041805,-0.00022871,0.85576,0.000513,0,0.00022401,1.3572e-05,5.5904e-20,0,0.23944,0.010786,0.010575,0.0096136,1,0.513,1,0.05,0
0.0034705,-0.00024061,0.86276,0.000514,0,0.00021275,1.3584e-05,5.5904e-20,0,0.19089,0.010307,0.0086042,0.0076708,1,0.514,1,0.05,0
0.0037738,-0.00021866,0.86706,0.000515,0,0.00022227,1.3591e-05,5.5057e-20,0,0.21296,0.009994,0.0094671,0.0085526,1,0.515,1,0.05,0
0.0039798,-0.00020083,0.87126,0.000516,0,0.00023004,1.36e-05,5.5904e-20,0,0.22805,0.0096927,0.010052,0.0091556,1,0.516,1,0.05,0
0.0041219,-0.00018575,0.87541,0.000517,0,0.00023672,1.3611e-05,5.7598e-20,0,0.2386,0.0094004,0.010454,0.0095766,1,0.517,1,0.05,0
0.0042206,-0.00017253,0.87952,0.000518,0,0.00024271,1.3623e-05,5.5057e-20,0,0.24605,0.0091135,0.010733,0.0098737,1,0.518,1,0.05,0
0.0036174,-0.00018235,0.88554,0.000519,0,0.00023242,1.3641e-05,5.5904e-20,0,0.20528,0.0087129,0.0090754,0.0082422,1,0.519,1,0.05,0
0.0038543,-0.00016438,0.88926,0.00052,0,0.00024212,1.3652e-05,5.6751e-20,0,0.22219,0.0084482,0.0097336,0.008918,1,0.52,1,0.05,0
0.0040226,-0.00014938,0.89288,0.000521,0,0.00025044,1.3666e-05,5.7598e-20,0,0.23425,0.0081946,0.010198,0.0093994,1,0.521,1,0.05,0
0.0041432,-0.00013648,0.89642,0.000522,0,0.00025786,1.3681e-05,5.6751e-20,0,0.24293,0.0079498,0.010528,0.0097461,1,0.522,1,0.05,0
0.0042293,-0.0001251,0.89991,0.000523,0,0.0002647,1.3697e-05,5.5904e-20,0,0.24919,0.0077105,0.01076,0.0099956,1,0.523,1,0.05,0
0.0042907,-0.00011483,0.90335,0.000524,0,0.00027117,1.3714e-05,5.5904e-20,0,0.2537,0.0074761,0.010923,0.010175,1,0.524,1,0.05,0
0.0043341,-0.00010541,0.90673,0.000525,0,0.00027742,1.3732e-05,5.5904e-20,0,0.25693,0.0072469,0.011035,0.010304,1,0.525,1,0.05,0
0.0038164,-0.00011425,0.91161,0.000526,0,0.00026774,1.376e-05,5.5057e-20,0,0.22241,0.0069293,0.0096305,0.0089224,1,0.526,1,0.05,0
0.0039649,-0.00010131,0.91463,0.000527,0,0.00027746,1.3777e-05,5.6751e-20,0,0.23271,0.0067181,0.010026,0.0093339,1,0.527,1,0.05,0
0.0040757,-9.0129e-05,0.91754,0.000528,0,0.00028631,1.3795e-05,5.6751e-20,0,0.24038,0.0065177,0.010317,0.0096399,1,0.528,1,0.05,0
0.0041582,-8.0283e-05,0.92035,0.000529,0,0.00029459,1.3816e-05,5.8445e-20,0,0.24609,0.006326,0.01053,0.0098675,1,0.529,1,0.05,0
0.0042188,-7.1467e-05,0.9231,0.00053,0,0.00030247,1.3839e-05,5.7598e-20,0,0.25027,0.00614,0.010682,0.010034,1,0.53,1,0.05,0
0.0042636,-6.3481e-05,0.92576,0.000531,0,0.00031011,1.3862e-05,5.7598e-20,0,0.25334,0.0059604,0.01079,0.010156,1,0.531,1,0.05,0
0.0042952,-5.6152e-05,0.92836,0.000532,0,0.00031759,1.3886e-05,5.8445e-20,0,0.25551,0.0057854,0.010862,0.010242,1,0.532,1,0.05,0
0.0043167,-4.9365e-05,0.93089,0.000533,0,0.00032501,1.3911e-05,5.9292e-20,0,0.25696,0.0056151,0.010905,0.0103,1,0.533,1,0.05,0
0.0043304,-4.3035e-05,0.93334,0.000534,0,0.00033241,1.3936e-05,5.7598e-20,0,0.25788,0.0054498,0.010928,0.010336,1,0.534,1,0.05,0
0.004338,-3.7098e-05,0.93572,0.000535,0,0.00033984,1.3962e-05,5.6751e-20,0,0.25837,0.0052896,0.010933,0.010355,1,0.535,1,0.05,0
0.0043408,-3.1507e-05,0.93801,0.000536,0,0.00034734,1.399e-05,5.8445e-20,0,0.25852,0.0051345,0.010926,0.010361,1,0.536,1,0.05,0
0.0043398,-2.6225e-05,0.94023,0.000537,0,0.00035494,1.4017e-05,5.9292e-20,0,0.25841,0.0049846,0.010908,0.010356,1,0.537,1,0.05,0
0.0043358,-2.1223e-05,0.94236,0.000538,0,0.00036265,1.4046e-05,5.9292e-20,0,0.25808,0.0048398,0.010881,0.010342,1,0.538,1,0.05,0
0.0043292,-1.6476e-05,0.94442,0.000539,0,0.00037049,1.4075e-05,5.9292e-20,0,0.25759,0.0047,0.010848,0.010322,1,0.539,1,0.05,0
0.0043207,-1.1965e-05,0.9464,0.00054,0,0.00037848,1.4105e-05,5.9292e-20,0,0.25695,0.0045652,0.01081,0.010296,1,0.54,1,0.05,0
0.0043104,-7.675e-06,0.94831,0.000541,0,0.00038662,1.4136e-05,5.7598e-20,0,0.2562,0.0044352,0.010768,0.010265,1,0.541,1,0.05,0
0.0042987,-3.5906e-06,0.95014,0.000542,0,0.00039491,1.4168e-05,6.0139e-20,0,0.25535,0.0043098,0.010722,0.010231,1,0.542,1,0.05,0
0.0042858,2.9984e-07,0.95189,0.000543,0,0.00040338,1.42e-05,5.8445e-20,0,0.25443,0.0041889,0.010673,0.010194,1,0.543,1,0.05,0
0.0042719,4.007e-06,0.95358,0.000544,0,0.00041201,1.4233e-05,5.7598e-20,0,0.25344,0.0040724,0.010622,0.010154,1,0.544,1,0.05,0
0.0042572,7.5405e-06,0.9552,0.000545,0,0.00042081,1.4266e-05,5.7598e-20,0,0.2524,0.0039601,0.010569,0.010112,1,0.545,1,0.05,0
0.004243,1.0911e-05,0.95674,0.000546,0,0.00042979,1.43e-05,6.0139e-20,0,0.2514,0.0038531,0.010518,0.010071,1,0.546,1,0.05,0
0.004228,1.412e-05,0.95822,0.000547,0,0.00043894,1.4335e-05,5.7598e-20,0,0.25035,0.00375,0.010465,0.010029,1,0.547,1,0.05,0
0.0042123,1.7178e-05,0.95963,0.000548,0,0.00044826,1.437e-05,5.8445e-20,0,0.24927,0.0036506,0.010412,0.0099851,1,0.548,1,0.05,0
0.004196,2.0092e-05,0.96099,0.000549,0,0.00045774,1.4406e-05,5.7598e-20,0,0.24816,0.0035547,0.010357,0.0099403,1,0.549,1,0.05,0
0.0041792,2.287e-05,0.96229,0.00055,0,0.00046741,1.4442e-05,5.9292e-20,0,0.24703,0.0034623,0.010302,0.0098948,1,0.55,1,0.05,0
0.0041621,2.5517e-05,0.96353,0.000551,0,0.00047725,1.4479e-05,6.0139e-20,0,0.24588,0.0033732,0.010246,0.0098487,1,0.551,1,0.05,0
0.0041446,2.8042e-05,0.96473,0.000552,0,0.00048726,1.4516e-05,6.0139e-20,0,0.24474,0.0032873,0.010191,0.0098025,1,0.552,1,0.05,0
0.0041268,3.0449e-05,0.96587,0.000553,0,0.00049744,1.4553e-05,6.0986e-20,0,0.24359,0.0032045,0.010136,0.0097562,1,0.553,1,0.05,0
0.0041089,3.2746e-05,0.96696,0.000554,0,0.0005078,1.4591e-05,6.1833e-20,0,0.24244,0.0031247,0.010081,0.00971,1,0.554,1,0.05,0
0.0040908,3.4936e-05,0.96801,0.000555,0,0.00051833,1.4629e-05,6.0986e-20,0,0.24131,0.0030477,0.010026,0.0096642,1,0.555,1,0.05,0
0.0040726,3.7026e-05,0.96901,0.000556,0,0.00052904,1.4668e-05,6.268e-20,0,0.24018,0.0029735,0.0099727,0.009619,1,0.556,1,0.05,0
0.0040543,3.902e-05,0.96997,0.000557,0,0.00053991,1.4707e-05,6.0986e-20,0,0.23908,0.002902,0.0099199,0.0095744,1,0.557,1,0.05,0
0.0040361,4.0924e-05,0.97088,0.000558,0,0.00055095,1.4746e-05,6.0986e-20,0,0.23799,0.002833,0.0098682,0.0095306,1,0.558,1,0.05,0
0.0040179,4.2742e-05,0.97176,0.000559,0,0.00056216,1.4785e-05,6.0986e-20,0,0.23693,0.0027665,0.0098175,0.0094878,1,0.559,1,0.05,0
0.0039997,4.4479e-05,0.9726,0.00056,0,0.00057353,1.4825e-05,6.268e-20,0,0.23589,0.0027024,0.0097681,0.009446,1,0.56,1,0.05,0
0.0039817,4.6138e-05,0.9734,0.000561,0,0.00058506,1.4865e-05,6.0986e-20,0,0.23488,0.0026405,0.00972,0.0094054,1,0.561,1,0.05,0
0.0039638,4.7724e-05,0.97416,0.000562,0,0.00059675,1.4906e-05,6.0986e-20,0,0.23391,0.0025809,0.0096733,0.0093661,1,0.562,1,0.05,0
0.0039461,4.9241e-05,0.9749,0.000563,0,0.0006086,1.4946e-05,6.268e-20,0,0.23296,0.0025234,0.0096282,0.0093281,1,0.563,1,0.05,0
0.0039286,5.0693e-05,0.97559,0.000564,0,0.00062061,1.4987e-05,6.4375e-20,0,0.23206,0.0024679,0.0095847,0.0092916,1,0.564,1,0.05,0
0.0039113,5.2083e-05,0.97626,0.000565,0,0.00063276,1.5028e-05,6.3527e-20,0,0.23119,0.0024144,0.0095429,0.0092566,1,0.565,1,0.05,0
0.0040698,5.9202e-05,0.97659,0.000566,0,0.0006592,1.5047e-05,6.268e-20,0,0.2411,0.0023827,0.0099352,0.0096529,1,0.566,1,0.05,0
0.0040384,5.9915e-05,0.97721,0.000567,0,0.00067041,1.5091e-05,6.4375e-20,0,0.23939,0.0023337,0.0098598,0.009584,1,0.567,1,0.05,0
0.0040067,6.0594e-05,0.97782,0.000568,0,0.00068192,1.5135e-05,6.0986e-20,0,0.23768,0.0022851,0.0097849,0.0095155,1,0.568,1,0.05,0
0.0039763,6.1278e-05,0.9784,0.000569,0,0.00069368,1.5178e-05,6.4375e-20,0,0.23609,0.0022375,0.0097145,0.0094516,1,0.569,1,0.05,0
0.0039477,6.1969e-05,0.97896,0.00057,0,0.00070567,1.5221e-05,6.268e-20,0,0.23463,0.0021914,0.0096495,0.0093929,1,0.57,1,0.05,0
0.0039207,6.2668e-05,0.97949,0.000571,0,0.00071787,1.5263e-05,6.3527e-20,0,0.2333,0.0021468,0.0095899,0.0093395,1,0.571,1,0.05,0
0.0040503,6.8541e-05,0.97975,0.000572,0,0.00074432,1.5284e-05,6.4375e-20,0,0.24151,0.00212,0.0099146,0.0096677,1,0.572,1,0.05,0
0.0040151,6.8799e-05,0.98024,0.000573,0,0.00075583,1.5328e-05,6.268e-20,0,0.2397,0.0020794,0.009836,0.009595,1,0.573,1,0.05,0
0.0039803,6.9057e-05,0.98072,0.000574,0,0.00076765,1.5373e-05,6.3527e-20,0,0.23795,0.002039,0.0097601,0.0095248,1,0.574,1,0.05,0
0.0039476,6.9349e-05,0.98118,0.000575,0,0.00077972,1.5417e-05,6.6069e-20,0,0.23635,0.0019997,0.0096903,0.0094608,1,0.575,1,0.05,0
0.0040614,7.4539e-05,0.9814,0.000576,0,0.00080609,1.5438e-05,6.4375e-20,0,0.24366,0.0019758,0.0099789,0.0097528,1,0.576,1,0.05,0
0.004023,7.4509e-05,0.98182,0.000577,0,0.00081762,1.5483e-05,6.4375e-20,0,0.24175,0.0019398,0.0098969,0.0096761,1,0.577,1,0.05,0
0.0039857,7.45e-05,0.98223,0.000578,0,0.00082946,1.5528e-05,6.3527e-20,0,0.23993,0.001904,0.0098187,0.0096034,1,0.578,1,0.05,0
0.0039509,7.4546e-05,0.98262,0.000579,0,0.00084158,1.5573e-05,6.4375e-20,0,0.2383,0.0018691,0.0097477,0.0095378,1,0.579,1,0.05,0
0.0040524,7.9192e-05,0.98281,0.00058,0,0.00086795,1.5594e-05,6.4375e-20,0,0.24492,0.0018477,0.010009,0.0098023,1,0.58,1,0.05,0
0.004014,7.9002e-05,0.98317,0.000581,0,0.0008796,1.564e-05,6.5222e-20,0,0.24309,0.0018159,0.0099309,0.0097291,1,0.581,1,0.05,0
0.0039768,7.8843e-05,0.98352,0.000582,0,0.00089157,1.5685e-05,6.6069e-20,0,0.24137,0.0017843,0.0098569,0.0096602,1,0.582,1,0.05,0
0.0039423,7.8747e-05,0.98386,0.000583,0,0.00090381,1.573e-05,6.6069e-20,0,0.23984,0.0017535,0.0097905,0.0095987,1,0.583,1,0.05,0
0.0040342,8.2959e-05,0.98402,0.000584,0,0.00093022,1.5751e-05,6.6069e-20,0,0.24594,0.0017344,0.010032,0.0098426,1,0.584,1,0.05,0
0.0039975,8.2688e-05,0.98432,0.000585,0,0.00094205,1.5797e-05,6.5222e-20,0,0.2443,0.0017064,0.009961,0.0097767,1,0.585,1,0.05,0
0.0039622,8.2451e-05,0.98462,0.000586,0,0.00095417,1.5842e-05,6.6069e-20,0,0.24276,0.0016786,0.0098948,0.0097152,1,0.586,1,0.05,0
0.0039295,8.228e-05,0.9849,0.000587,0,0.00096655,1.5887e-05,6.6069e-20,0,0.24141,0.0016516,0.0098361,0.009661,1,0.587,1,0.05,0
0.0040137,8.6141e-05,0.98504,0.000588,0,0.00099302,1.5909e-05,6.6069e-20,0,0.24712,0.0016346,0.010062,0.0098891,1,0.588,1,0.05,0
0.0039797,8.5838e-05,0.98529,0.000589,0,0.001005,1.5954e-05,6.7763e-20,0,0.2457,0.00161,0.010001,0.0098324,1,0.589,1,0.05,0
0.0039471,8.5569e-05,0.98554,0.00059,0,0.0010173,1.6e-05,6.7763e-20,0,0.2444,0.0015856,0.0099439,0.0097799,1,0.59,1,0.05,0
0.0039169,8.5365e-05,0.98578,0.000591,0,0.0010298,1.6044e-05,6.7763e-20,0,0.24326,0.001562,0.0098941,0.0097344,1,0.591,1,0.05,0
0.0039951,8.8939e-05,0.9859,0.000592,0,0.0010563,1.6066e-05,6.7763e-20,0,0.24867,0.0015468,0.010108,0.0099504,1,0.592,1,0.05,0
0.0039643,8.8634e-05,0.98611,0.000593,0,0.0010685,1.6112e-05,6.7763e-20,0,0.2475,0.0015253,0.010057,0.0099036,1,0.593,1,0.05,0
0.0039348,8.8362e-05,0.98632,0.000594,0,0.0010809,1.6157e-05,6.7763e-20,0,0.24643,0.001504,0.01001,0.0098608,1,0.594,1,0.05,0
0.0039077,8.8152e-05,0.98652,0.000595,0,0.0010935,1.6201e-05,6.7763e-20,0,0.24553,0.0014833,0.00997,0.0098243,1,0.595,1,0.05,0
0.003981,9.149e-05,0.98662,0.000596,0,0.0011201,1.6223e-05,6.7763e-20,0,0.25069,0.0014698,0.010174,0.010031,1,0.596,1,0.05,0
0.0039537,9.1201e-05,0.9868,0.000597,0,0.0011323,1.6268e-05,6.6916e-20,0,0.24977,0.0014511,0.010134,0.0099939,1,0.597,1,0.05,0
0.0039275,9.0942e-05,0.98698,0.000598,0,0.0011448,1.6313e-05,6.861e-20,0,0.24894,0.0014325,0.010097,0.0099606,1,0.598,1,0.05,0
0.0039035,9.0742e-05,0.98714,0.000599,0,0.0011575,1.6358e-05,6.861e-20,0,0.24826,0.0014144,0.010066,0.0099331,1,0.599,1,0.05,0
0.0038817,9.0598e-05,0.9873,0.0006,0,0.0011704,1.6402e-05,6.861e-20,0,0.24772,0.001397,0.010041,0.0099113,1,0.6,1,0.05,0
0.0039509,9.3721e-05,0.98738,0.000601,0,0.001197,1.6423e-05,6.9457e-20,0,0.2527,0.0013854,0.010238,0.01011,1,0.601,1,0.05,0
0.0039292,9.3513e-05,0.98752,0.000602,0,0.0012095,1.6468e-05,6.7763e-20,0,0.25215,0.0013697,0.010213,0.010088,1,0.602,1,0.05,0
0.0039085,9.3329e-05,0.98766,0.000603,0,0.0012222,1.6513e-05,6.6916e-20,0,0.25167,0.0013542,0.01019,0.010069,1,0.603,1,0.05,0
0.0038897,9.3195e-05,0.98779,0.000604,0,0.001235,1.6557e-05,6.6069e-20,0,0.25132,0.0013392,0.010173,0.010055,1,0.604,1,0.05,0
0.0038727,9.3107e-05,0.98792,0.000605,0,0.001248,1.6601e-05,6.9457e-20,0,0.25108,0.0013247,0.010161,0.010045,1,0.605,1,0.05,0
0.0038577,9.3065e-05,0.98804,0.000606,0,0.001261,1.6645e-05,6.9457e-20,0,0.25096,0.0013108,0.010153,0.01004,1,0.606,1,0.05,0
0.0039235,9.5996e-05,0.98809,0.000607,0,0.0012877,1.6666e-05,6.9457e-20,0,0.2558,0.0013011,0.010345,0.010234,1,0.607,1,0.05,0
0.0039085,9.5897e-05,0.9882,0.000608,0,0.0013004,1.6711e-05,7.0304e-20,0,0.25566,0.0012887,0.010336,0.010228,1,0.608,1,0.05,0
0.0038942,9.5814e-05,0.98831,0.000609,0,0.0013132,1.6755e-05,6.861e-20,0,0.25557,0.0012764,0.01033,0.010225,1,0.609,1,0.05,0
0.0038815,9.5769e-05,0.9884,0.00061,0,0.0013261,1.6799e-05,7.1998e-20,0,0.25559,0.0012645,0.010328,0.010225,1,0.61,1,0.05,0
0.0038703,9.5761e-05,0.9885,0.000611,0,0.0013391,1.6843e-05,7.0304e-20,0,0.25569,0.0012531,0.010329,0.010229,1,0.611,1,0.05,0
0.0038606,9.5788e-05,0.98859,0.000612,0,0.0013522,1.6887e-05,7.0304e-20,0,0.25587,0.0012421,0.010334,0.010236,1,0.612,1,0.05,0
0.0038524,9.5847e-05,0.98867,0.000613,0,0.0013653,1.693e-05,7.0304e-20,0,0.25614,0.0012317,0.010342,0.010247,1,0.613,1,0.05,0
0.0038455,9.5935e-05,0.98875,0.000614,0,0.0013785,1.6974e-05,6.9457e-20,0,0.25649,0.0012217,0.010354,0.010261,1,0.614,1,0.05,0
0.0038399,9.6049e-05,0.98882,0.000615,0,0.0013918,1.7018e-05,7.1998e-20,0,0.2569,0.0012121,0.010368,0.010277,1,0.615,1,0.05,0
0.0038355,9.6188e-05,0.98889,0.000616,0,0.001405,1.7061e-05,7.1151e-20,0,0.25738,0.001203,0.010385,0.010296,1,0.616,1,0.05,0
0.0038322,9.6349e-05,0.98896,0.000617,0,0.0014183,1.7105e-05,6.7763e-20,0,0.25792,0.0011944,0.010405,0.010318,1,0.617,1,0.05,0
0.0038299,9.6529e-05,0.98902,0.000618,0,0.0014316,1.7148e-05,7.0304e-20,0,0.25852,0.0011862,0.010426,0.010341,1,0.618,1,0.05,0
0.0038212,9.6627e-05,0.98909,0.000619,0,0.001445,1.7192e-05,6.9457e-20,0,0.25906,0.0011732,0.010445,0.010363,1,0.619,1,0.05,0
0.0038123,9.6771e-05,0.98916,0.00062,0,0.0014584,1.7235e-05,7.0304e-20,0,0.25987,0.0011575,0.010473,0.010395,1,0.62,1,0.05,0
0.0038029,9.6957e-05,0.98922,0.000621,0,0.0014718,1.7277e-05,6.9457e-20,0,0.26097,0.0011388,0.010511,0.010439,1,0.621,1,0.05,0
0.0037927,9.7182e-05,0.98928,0.000622,0,0.0014853,1.7319e-05,7.1151e-20,0,0.26238,0.0011162,0.010561,0.010495,1,0.622,1,0.05,0
0.0037749,9.7299e-05,0.98934,0.000623,0,0.0014989,1.736e-05,7.0304e-20,0,0.26339,0.0010887,0.010593,0.010535,1,0.623,1,0.05,0
0.0037544,9.7402e-05,0.9894,0.000624,0,0.0015126,1.7399e-05,7.1151e-20,0,0.26417,0.001058,0.010616,0.010566,1,0.624,1,0.05,0
0.0037261,9.7394e-05,0.98946,0.000625,0,0.0015264,1.7436e-05,7.1998e-20,0,0.26444,0.0010226,0.010618,0.010577,1,0.625,1,0.05,0
0.0037274,9.9335e-05,0.98952,0.000626,0,0.0015534,1.7455e-05,7.1998e-20,0,0.2668,0.00097509,0.010702,0.01067,1,0.626,1,0.05,0
0.0037127,0.00010109,0.98957,0.000627,0,0.0015804,1.7472e-05,7.1151e-20,0,0.2677,0.00091996,0.010726,0.010706,1,0.627,1,0.05,0
0.0036461,0.00010051,0.98962,0.000628,0,0.0015942,1.7498e-05,7.0304e-20,0,0.26461,0.00086402,0.010592,0.010582,1,0.628,1,0.05,0
0.0035953,0.00010167,0.98967,0.000629,0,0.0016213,1.7511e-05,7.0304e-20,0,0.26243,0.00079379,0.010491,0.010494,1,0.629,1,0.05,0
0.0035195,0.00010239,0.98972,0.00063,0,0.0016484,1.752e-05,7.2845e-20,0,0.25772,0.00071482,0.010291,0.010306,1,0.63,1,0.05,0
0.0034143,0.00010255,0.98976,0.000631,0,0.0016757,1.7524e-05,7.1151e-20,0,0.24995,0.00062769,0.0099673,0.0099945,1,0.631,1,0.05,0
0.0032769,0.00010201,0.98979,0.000632,0,0.0017032,1.7523e-05,7.3692e-20,0,0.2386,0.00053406,0.0095022,0.0095401,1,0.632,1,0.05,0
0.0031054,0.00010064,0.98983,0.000633,0,0.0017309,1.7514e-05,7.1151e-20,0,0.22324,0.00043662,0.008879,0.0089253,1,0.633,1,0.05,0
0.0028996,9.833e-05,0.98985,0.000634,0,0.001759,1.7496e-05,7.2845e-20,0,0.2036,0.0003392,0.0080886,0.0081398,1,0.634,1,0.05,0
0.0026618,9.4977e-05,0.98988,0.000635,0,0.0017877,1.7467e-05,7.0304e-20,0,0.1797,0.00024663,0.0071328,0.0071842,1,0.635,1,0.05,0
0.0023967,9.0532e-05,0.9899,0.000636,0,0.0018169,1.7425e-05,7.1151e-20,0,0.15194,0.0001643,0.0060282,0.0060742,1,0.636,1,0.05,0
0.0021118,8.5e-05,0.98991,0.000637,0,0.0018469,1.7368e-05,7.3692e-20,0,0.12119,9.7543e-05,0.0048103,0.0048451,1,0.637,1,0.05,0
0.0018167,7.845e-05,0.98993,0.000638,0,0.0018776,1.7295e-05,7.0304e-20,0,0.088879,5.0667e-05,0.0035355,0.0035535,1,0.638,1,0.05,0
0.0015229,7.1028e-05,0.98994,0.000639,0,0.0019091,1.7204e-05,6.861e-20,0,0.056918,2.5884e-05,0.0022788,0.0022762,1,0.639,1,0.05,0
0.0012421,6.2944e-05,0.98995,0.00064,0,0.0019416,1.7096e-05,7.4539e-20,0,0.027557,2.2313e-05,0.0011274,0.001103,1,0.64,1,0.05,0
0.0009849,5.4465e-05,0.98996,0.000641,0,0.001975,1.697e-05,7.0304e-20,0,0.003034,3.55e-05,0.00016733,0.0001231,1,0.641,1,0.05,0
0.00075915,4.5884e-05,0.98997,0.000642,0,0.0020093,1.6831e-05,7.1998e-20,0,-0.01488,5.786e-05,-0.00053423,-0.00059272,1,0.642,1,0.05,0
0.00056906,3.7503e-05,0.98998,0.000643,0,0.0020445,1.6683e-05,6.9457e-20,0,-0.025347,8.026e-05,-0.0009462,-0.001011,1,0.643,1,0.05,0
0.00041512,2.9612e-05,0.98998,0.000644,0,0.0020805,1.6532e-05,6.861e-20,0,-0.028743,9.4481e-05,-0.0010844,-0.0011469,1,0.644,1,0.05,0
0.00029485,2.2478e-05,0.98999,0.000645,0,0.0021173,1.6386e-05,6.9457e-20,0,-0.026603,9.5751e-05,-0.0010085,-0.0010617,1,0.645,1,0.05,0
0.00020404,1.633e-05,0.98999,0.000646,0,0.0021547,1.6252e-05,6.9457e-20,0,-0.021173,8.4164e-05,-0.00080523,-0.0008451,1,0.646,1,0.05,0
0.00013783,1.133e-05,0.98999,0.000647,0,0.0021927,1.6136e-05,6.861e-20,0,-0.014741,6.4152e-05,-0.0005623,-0.00058843,1,0.647,1,0.05,0
9.1369e-05,7.5311e-06,0.99,0.000648,0,0.0022311,1.6041e-05,6.6916e-20,0,-0.0090252,4.2127e-05,-0.00034552,-0.00036032,1,0.648,1,0.05,0
6.0042e-05,4.8534e-06,0.99,0.000649,0,0.00227,1.5966e-05,6.4375e-20,0,-0.004876,2.3539e-05,-0.00018759,-0.00019471,1,0.649,1,0.05,0
3.964e-05,3.0982e-06,0.99,0.00065,0,0.0023091,1.5909e-05,6.6069e-20,0,-0.002356,1.0969e-05,-9.1288e-05,-9.4102e-05,1,0.65,1,0.05,0
2.6592e-05,2.0086e-06,0.99,0.000651,0,0.0023485,1.5865e-05,6.4375e-20,0,-0.0010683,4.1123e-06,-4.1818e-05,-4.2685e-05,1,0.651,1,0.05,0
1.8191e-05,1.3437e-06,0.99,0.000652,0,0.002388,1.5829e-05,6.4375e-20,0,-0.00051154,1.1329e-06,-2.0276e-05,-2.0449e-05,1,0.652,1,0.05,0
1.2634e-05,9.2647e-07,0.99,0.000653,0,0.0024276,1.58e-05,6.6916e-20,0,-0.00029947,1.4029e-07,-1.1984e-05,-1.1976e-05,1,0.653,1,0.05,0
8.852e-06,6.5021e-07,0.99,0.000654,0,0.0024673,1.5774e-05,6.5222e-20,0,-0.00021453,-8.2114e-08,-8.6145e-06,-8.5802e-06,1,0.654,1,0.05,0
6.2402e-06,4.5891e-07,0.99,0.000655,0,0.0025071,1.5752e-05,6.5222e-20,0,-0.0001641,-8.8856e-08,-6.5924e-06,-6.5635e-06,1,0.655,1,0.05,0
4.4435e-06,3.2394e-07,0.99,0.000656,0,0.0025468,1.5732e-05,6.6916e-20,0,-0.0001193,-6.1766e-08,-4.7922e-06,-4.7714e-06,1,0.656,1,0.05,0
3.2281e-06,2.2903e-07,0.99,0.000657,0,0.0025867,1.5715e-05,6.6069e-20,0,-7.5271e-05,-4.0701e-08,-3.0249e-06,-3.0106e-06,1,0.657,1,0.05,0
2.4259e-06,1.6337e-07,0.99,0.000658,0,0.0026265,1.57e-05,6.4375e-20,0,-3.3823e-05,-2.816e-08,-1.3621e-06,-1.3529e-06,1,0.658,1,0.05,0
1.9116e-06,1.1904e-07,0.99,0.000659,0,0.0026664,1.5688e-05,6.4375e-20,0,2.4886e-06,-2.0919e-08,9.3729e-08,9.9294e-08,1,0.659,1,0.05,0
1.5924e-06,8.9997e-08,0.99,0.00066,0,0.0027064,1.5678e-05,6.6069e-20,0,3.2011e-05,-1.6489e-08,1.2768e-06,1.28e-06,1,0.66,1,0.05,0
1.4012e-06,7.1618e-08,0.99,0.000661,0,0.0027463,1.567e-05,6.4375e-20,0,5.4311e-05,-1.3587e-08,2.17e-06,2.1718e-06,1,0.661,1,0.05,0
1.2911e-06,6.0444e-08,0.99,0.000662,0,0.0027862,1.5663e-05,6.5222e-20,0,6.9979e-05,-1.1637e-08,2.7974e-06,2.7984e-06,1,0.662,1,0.05,0
1.2302e-06,5.3947e-08,0.99,0.000663,0,0.0028262,1.5657e-05,6.7763e-20,0,8.0223e-05,-1.0343e-08,3.2076e-06,3.2081e-06,1,0.663,1,0.05,0
1.198e-06,5.0348e-08,0.99,0.000664,0,0.0028662,1.5651e-05,6.4375e-20,0,8.6455e-05,-9.4967e-09,3.4571e-06,3.4573e-06,1,0.664,1,0.05,0
1.1818e-06,4.8458e-08,0.99,0.000665,0,0.0029061,1.5645e-05,6.3527e-20,0,8.9982e-05,-8.9349e-09,3.5982e-06,3.5983e-06,1,0.665,1,0.05,0
1.174e-06,4.7519e-08,0.99,0.000666,0,0.0029461,1.564e-05,6.4375e-20,0,9.1835e-05,-8.5393e-09,3.6724e-06,3.6725e-06,1,0.666,1,0.05,0
1.1705e-06,4.708e-08,0.99,0.000667,0,0.002986,1.5634e-05,6.5222e-20,0,9.2739e-05,-8.2333e-09,3.7086e-06,3.7086e-06,1,0.667,1,0.05,0
1.169e-06,4.6885e-08,0.99,0.000668,0,0.003026,1.5629e-05,6.5222e-20,0,9.3147e-05,-7.9731e-09,3.7249e-06,3.7249e-06,1,0.668,1,0.05,0
1.1683e-06,4.6802e-08,0.99,0.000669,0,0.0030659,1.5624e-05,6.4375e-20,0,9.3318e-05,-7.7366e-09,3.7317e-06,3.7317e-06,1,0.669,1,0.05,0
1.1681e-06,4.6767e-08,0.99,0.00067,0,0.0031059,1.562e-05,6.4375e-20,0,9.3383e-05,-7.5134e-09,3.7344e-06,3.7344e-06,1,0.67,1,0.05,0
1.168e-06,4.6752e-08,0.99,0.000671,0,0.0031458,1.5615e-05,6.4375e-20,0,9.3407e-05,-7.2999e-09,3.7353e-06,3.7353e-06,1,0.671,1,0.05,0
1.1679e-06,4.6744e-08,0.99,0.000672,0,0.0031858,1.5611e-05,6.4375e-20,0,9.3414e-05,-7.0948e-09,3.7356e-06,3.7356e-06,1,0.672,1,0.05,0
1.1679e-06,4.6738e-08,0.99,0.000673,0,0.0032258,1.5606e-05,6.6069e-20,0,9.3417e-05,-6.8982e-09,3.7357e-06,3.7357e-06,1,0.673,1,0.05,0
1.1678e-06,4.6734e-08,0.99,0.000674,0,0.0032657,1.5602e-05,6.6069e-20,0,9.3417e-05,-6.71e-09,3.7357e-06,3.7357e-06,1,0.674,1,0.05,0
1.1678e-06,4.673e-08,0.99,0.000675,0,0.0033057,1.5598e-05,6.5222e-20,0,9.3417e-05,-6.5304e-09,3.7357e-06,3.7357e-06,1,0.675,1,0.05,0
1.1678e-06,4.6726e-08,0.99,0.000676,0,0.0033456,1.5594e-05,6.4375e-20,0,9.3417e-05,-6.3594e-09,3.7357e-06,3.7357e-06,1,0.676,1,0.05,0
1.1678e-06,4.6723e-08,0.99,0.000677,0,0.0033856,1.559e-05,6.6069e-20,0,9.3417e-05,-6.1968e-09,3.7357e-06,3.7357e-06,1,0.677,1,0.05,0
1.1678e-06,4.672e-08,0.99,0.000678,0,0.0034255,1.5586e-05,6.6069e-20,0,9.3417e-05,-6.0426e-09,3.7357e-06,3.7357e-06,1,0.678,1,0.05,0
1.1677e-06,4.6717e-08,0.99,0.000679,0,0.0034655,1.5583e-05,6.6069e-20,0,9.3417e-05,-5.8963e-09,3.7357e-06,3.7357e-06,1,0.679,1,0.05,0
1.1677e-06,4.6714e-08,0.99,0.00068,0,0.0035054,1.5579e-05,6.5222e-20,0,9.3417e-05,-5.7578e-09,3.7357e-06,3.7357e-06,1,0.68,1,0.05,0
1.1677e-06,4.6712e-08,0.99,0.000681,0,0.0035454,1.5575e-05,6.6069e-20,0,9.3417e-05,-5.6268e-09,3.7357e-06,3.7357e-06,1,0.681,1,0.05,0
1.1677e-06,4.6709e-08,0.99,0.000682,0,0.0035853,1.5572e-05,6.268e-20,0,9.3417e-05,-5.5029e-09,3.7357e-06,3.7357e-06,1,0.682,1,0.05,0
1.1677e-06,4.6707e-08,0.99,0.000683,0,0.0036253,1.5569e-05,6.6069e-20,0,9.3417e-05,-5.3859e-09,3.7357e-06,3.7357e-06,1,0.683,1,0.05,0
1.1677e-06,4.6705e-08,0.99,0.000684,0,0.0036652,1.5565e-05,6.4375e-20,0,9.3417e-05,-5.2754e-09,3.7357e-06,3.7357e-06,1,0.684,1,0.05,0
1.1677e-06,4.6703e-08,0.99,0.000685,0,0.0037052,1.5562e-05,6.4375e-20,0,9.3417e-05,-5.171e-09,3.7357e-06,3.7357e-06,1,0.685,1,0.05,0
1.1677e-06,4.6701e-08,0.99,0.000686,0,0.0037452,1.5559e-05,6.6069e-20,0,9.3417e-05,-5.0726e-09,3.7357e-06,3.7357e-06,1,0.686,1,0.05,0
1.1677e-06,4.67e-08,0.99,0.000687,0,0.0037851,1.5556e-05,6.3527e-20,0,9.3417e-05,-4.9797e-09,3.7357e-06,3.7357e-06,1,0.687,1,0.05,0
1.1677e-06,4.6698e-08,0.99,0.000688,0,0.0038251,1.5553e-05,6.4375e-20,0,9.3417e-05,-4.8922e-09,3.7357e-06,3.7357e-06,1,0.688,1,0.05,0
1.1677e-06,4.6696e-08,0.99,0.000689,0,0.003865,1.555e-05,6.5222e-20,0,9.3417e-05,-4.8096e-09,3.7357e-06,3.7357e-06,1,0.689,1,0.05,0
1.1677e-06,4.6695e-08,0.99,0.00069,0,0.003905,1.5547e-05,6.3527e-20,0,9.3417e-05,-4.7318e-09,3.7357e-06,3.7357e-06,1,0.69,1,0.05,0
1.1677e-06,4.6694e-08,0.99,0.000691,0,0.0039449,1.5544e-05,6.5222e-20,0,9.3417e-05,-4.6585e-09,3.7357e-06,3.7357e-06,1,0.691,1,0.05,0
1.1677e-06,4.6692e-08,0.99,0.000692,0,0.0039849,1.5541e-05,6.4375e-20,0,9.3417e-05,-4.5894e-09,3.7357e-06,3.7357e-06,1,0.692,1,0.05,0
1.1677e-06,4.6691e-08,0.99,0.000693,0,0.0040248,1.5538e-05,6.4375e-20,0,9.3417e-05,-4.5243e-09,3.7357e-06,3.7357e-06,1,0.693,1,0.05,0
1.1677e-06,4.669e-08,0.99,0.000694,0,0.0040648,1.5535e-05,6.5222e-20,0,9.3417e-05,-4.463e-09,3.7357e-06,3.7357e-06,1,0.694,1,0.05,0
1.1677e-06,4.6689e-08,0.99,0.000695,0,0.0041047,1.5532e-05,6.4375e-20,0,9.3417e-05,-4.4053e-09,3.7357e-06,3.7357e-06,1,0.695,1,0.05,0
1.1677e-06,4.6688e-08,0.99,0.000696,0,0.0041447,1.553e-05,6.4375e-20,0,9.3416e-05,-4.351e-09,3.7357e-06,3.7357e-06,1,0.696,1,0.05,0
1.1677e-06,4.6687e-08,0.99,0.000697,0,0.0041846,1.5527e-05,6.6069e-20,0,9.3416e-05,-4.2999e-09,3.7357e-06,3.7357e-06,1,0.697,1,0.05,0
1.1677e-06,4.6686e-08,0.99,0.000698,0,0.0042246,1.5524e-05,6.5222e-20,0,9.3416e-05,-4.2517e-09,3.7357e-06,3.7357e-06,1,0.698,1,0.05,0
1.1677e-06,4.6685e-08,0.99,0.000699,0,0.0042645,1.5522e-05,6.6069e-20,0,9.3416e-05,-4.2064e-09,3.7357e-06,3.7357e-06,1,0.699,1,0.05,0
1.1677e-06,4.6684e-08,0.99,0.0007,0,0.0043045,1.5519e-05,6.4375e-20,0,9.3416e-05,-4.1638e-09,3.7357e-06,3.7357e-06,1,0.7,1,0.05,0
1.1677e-06,4.6684e-08,0.99,0.000701,0,0.0043445,1.5516e-05,6.5222e-20,0,9.3416e-05,-4.1237e-09,3.7357e-06,3.7357e-06,1,0.701,1,0.05,0
1.1677e-06,4.6683e-08,0.99,0.000702,0,0.0043844,1.5514e-05,6.6069e-20,0,9.3416e-05,-4.0859e-09,3.7357e-06,3.7357e-06,1,0.702,1,0.05,0
1.1677e-06,4.6682e-08,0.99,0.000703,0,0.0044244,1.5511e-05,6.4375e-20,0,9.3416e-05,-4.0505e-09,3.7357e-06,3.7357e-06,1,0.703,1,0.05,0
1.1676e-06,4.6682e-08,0.99,0.000704,0,0.0044643,1.5509e-05,6.4375e-20,0,9.3416e-05,-4.0171e-09,3.7357e-06,3.7357e-06,1,0.704,1,0.05,0
1.1676e-06,4.6681e-08,0.99,0.000705,0,0.0045043,1.5506e-05,6.6069e-20,0,9.3416e-05,-3.9857e-09,3.7357e-06,3.7357e-06,1,0.705,1,0.05,0
1.1676e-06,4.668e-08,0.99,0.000706,0,0.0045442,1.5504e-05,6.4375e-20,0,9.3416e-05,-3.9562e-09,3.7357e-06,3.7357e-06,1,0.706,1,0.05,0
1.1676e-06,4.668e-08,0.99,0.000707,0,0.0045842,1.5501e-05,6.5222e-20,0,9.3416e-05,-3.9284e-09,3.7357e-06,3.7357e-06,1,0.707,1,0.05,0
1.1676e-06,4.6679e-08,0.99,0.000708,0,0.0046241,1.5499e-05,6.3527e-20,0,9.3416e-05,-3.9023e-09,3.7357e-06,3.7357e-06,1,0.708,1,0.05,0
1.1676e-06,4.6679e-08,0.99,0.000709,0,0.0046641,1.5496e-05,6.5222e-20,0,9.3416e-05,-3.8778e-09,3.7357e-06,3.7357e-06,1,0.709,1,0.05,0
1.1676e-06,4.6678e-08,0.99,0.00071,0,0.004704,1.5494e-05,6.268e-20,0,9.3416e-05,-3.8548e-09,3.7357e-06,3.7357e-06,1,0.71,1,0.05,0
1.1676e-06,4.6678e-08,0.99,0.000711,0,0.004744,1.5491e-05,6.5222e-20,0,9.3416e-05,-3.8331e-09,3.7357e-06,3.7357e-06,1,0.711,1,0.05,0
1.1676e-06,4.6677e-08,0.99,0.000712,0,0.0047839,1.5489e-05,6.6069e-20,0,9.3416e-05,-3.8128e-09,3.7357e-06,3.7357e-06,1,0.712,1,0.05,0
1.1676e-06,4.6677e-08,0.99,0.000713,0,0.0048239,1.5487e-05,6.3527e-20,0,9.3416e-05,-3.7937e-09,3.7357e-06,3.7357e-06,1,0.713,1,0.05,0
1.1676e-06,4.6677e-08,0.99,0.000714,0,0.0048638,1.5484e-05,6.3527e-20,0,9.3416e-05,-3.7757e-09,3.7357e-06,3.7357e-06,1,0.714,1,0.05,0
1.1676e-06,4.6676e-08,0.99,0.000715,0,0.0049038,1.5482e-05,6.4375e-20,0,9.3416e-05,-3.7589e-09,3.7357e-06,3.7357e-06,1,0.715,1,0.05,0
1.1676e-06,4.6676e-08,0.99,0.000716,0,0.0049437,1.548e-05,6.6069e-20,0,9.3416e-05,-3.743e-09,3.7357e-06,3.7357e-06,1,0.716,1,0.05,0
1.1676e-06,4.6676e-08,0.99,0.000717,0,0.0049837,1.5477e-05,6.4375e-20,0,9.3416e-05,-3.7282e-09,3.7357e-06,3.7357e-06,1,0.717,1,0.05,0
1.1676e-06,4.6675e-08,0.99,0.000718,0,0.0050237,1.5475e-05,6.4375e-20,0,9.3416e-05,-3.7142e-09,3.7357e-06,3.7357e-06,1,0.718,1,0.05,0
1.1676e-06,4.6675e-08,0.99,0.000719,0,0.0050636,1.5472e-05,6.6069e-20,0,9.3416e-05,-3.7011e-09,3.7357e-06,3.7357e-06,1,0.719,1,0.05,0
1.1676e-06,4.6675e-08,0.99,0.00072,0,0.0051036,1.547e-05,6.4375e-20,0,9.3416e-05,-3.6889e-09,3.7357e-06,3.7357e-06,1,0.72,1,0.05,0
1.1676e-06,4.6675e-08,0.99,0.000721,0,0.0051435,1.5468e-05,6.1833e-20,0,9.3416e-05,-3.6774e-09,3.7357e-06,3.7357e-06,1,0.721,1,0.05,0
1.1676e-06,4.6674e-08,0.99,0.000722,0,0.0051835,1.5466e-05,6.3527e-20,0,9.3416e-05,-3.6666e-09,3.7357e-06,3.7357e-06,1,0.722,1,0.05,0
1.1676e-06,4.6674e-08,0.99,0.000723,0,0.0052234,1.5463e-05,6.3527e-20,0,9.3416e-05,-3.6565e-09,3.7357e-06,3.7357e-06,1,0.723,1,0.05,0
1.1676e-06,4.6674e-08,0.99,0.000724,0,0.0052634,1.5461e-05,6.3527e-20,0,9.3416e-05,-3.647e-09,3.7357e-06,3.7357e-06,1,0.724,1,0.05,0
1.1676e-06,4.6674e-08,0.99,0.000725,0,0.0053033,1.5459e-05,6.4375e-20,0,9.3415e-05,-3.6381e-09,3.7357e-06,3.7357e-06,1,0.725,1,0.05,0
1.1676e-06,4.6673e-08,0.99,0.000726,0,0.0053433,1.5456e-05,6.4375e-20,0,9.3415e-05,-3.6298e-09,3.7356e-06,3.7356e-06,1,0.726,1,0.05,0
1.1676e-06,4.6673e-08,0.99,0.000727,0,0.0053832,1.5454e-05,6.4375e-20,0,9.3415e-05,-3.622e-09,3.7356e-06,3.7356e-06,1,0.727,1,0.05,0
1.1676e-06,4.6673e-08,0.99,0.000728,0,0.0054232,1.5452e-05,6.6069e-20,0,9.3415e-05,-3.6147e-09,3.7356e-06,3.7356e-06,1,0.728,1,0.05,0
1.1676e-06,4.6673e-08,0.99,0.000729,0,0.0054631,1.545e-05,6.5222e-20,0,9.3415e-05,-3.6079e-09,3.7356e-06,3.7356e-06,1,0.729,1,0.05,0
1.1676e-06,4.6673e-08,0.99,0.00073,0,0.0055031,1.5447e-05,6.4375e-20,0,9.3415e-05,-3.6015e-09,3.7356e-06,3.7356e-06,1,0.73,1,0.05,0
1.1676e-06,4.6673e-08,0.99,0.000731,0,0.005543,1.5445e-05,6.268e-20,0,9.3415e-05,-3.5955e-09,3.7356e-06,3.7356e-06,1,0.731,1,0.05,0
1.1676e-06,4.6672e-08,0.99,0.000732,0,0.005583,1.5443e-05,6.3527e-20,0,9.3415e-05,-3.59e-09,3.7356e-06,3.7356e-06,1,0.732,1,0.05,0
1.1676e-06,4.6672e-08,0.99,0.000733,0,0.0056229,1.544e-05,6.3527e-20,0,9.3415e-05,-3.5847e-09,3.7356e-06,3.7356e-06,1,0.733,1,0.05,0
1.1676e-06,4.6672e-08,0.99,0.000734,0,0.0056629,1.5438e-05,6.268e-20,0,9.3415e-05,-3.5799e-09,3.7356e-06,3.7356e-06,1,0.734,1,0.05,0
1.1676e-06,4.6672e-08,0.99,0.000735,0,0.0057028,1.5436e-05,6.4375e-20,0,9.3415e-05,-3.5753e-09,3.7356e-06,3.7356e-06,1,0.735,1,0.05,0
1.1676e-06,4.6672e-08,0.99,0.000736,0,0.0057428,1.5434e-05,6.4375e-20,0,9.3415e-05,-3.571e-09,3.7356e-06,3.7356e-06,1,0.736,1,0.05,0
1.1676e-06,4.6672e-08,0.99,0.000737,0,0.0057828,1.5431e-05,6.4375e-20,0,9.3415e-05,-3.567e-09,3.7356e-06,3.7356e-06,1,0.737,1,0.05,0
1.1676e-06,4.6672e-08,0.99,0.000738,0,0.0058227,1.5429e-05,6.6069e-20,0,9.3415e-05,-3.5632e-09,3.7356e-06,3.7356e-06,1,0.738,1,0.05,0
1.1676e-06,4.6672e-08,0.99,0.000739,0,0.0058627,1.5427e-05,6.3527e-20,0,9.3415e-05,-3.5597e-09,3.7356e-06,3.7356e-06,1,0.739,1,0.05,0
1.1676e-06,4.6671e-08,0.99,0.00074,0,0.0059026,1.5425e-05,6.3527e-20,0,9.3415e-05,-3.5564e-09,3.7356e-06,3.7356e-06,1,0.74,1,0.05,0
1.1676e-06,4.6671e-08,0.99,0.000741,0,0.0059426,1.5422e-05,6.4375e-20,0,9.3415e-05,-3.5533e-09,3.7356e-06,3.7356e-06,1,0.741,1,0.05,0
1.1676e-06,4.6671e-08,0.99,0.000742,0,0.0059825,1.542e-05,6.4375e-20,0,9.3415e-05,-3.5505e-09,3.7356e-06,3.7356e-06,1,0.742,1,0.05,0
1.1676e-06,4.6671e-08,0.99,0.000743,0,0.0060225,1.5418e-05,6.268e-20,0,9.3415e-05,-3.5479e-09,3.7356e-06,3.7356e-06,1,0.743,1,0.05,0
1.1676e-06,4.6671e-08,0.99,0.000744,0,0.0060624,1.5416e-05,6.268e-20,0,9.3415e-05,-3.5454e-09,3.7356e-06,3.7356e-06,1,0.744,1,0.05,0
1.1676e-06,4.6671e-08,0.99,0.000745,0,0.0061024,1.5414e-05,6.6069e-20,0,9.3415e-05,-3.5432e-09,3.7356e-06,3.7356e-06,1,0.745,1,0.05,0
1.1676e-06,4.6671e-08,0.99,0.000746,0,0.0061423,1.5411e-05,6.3527e-20,0,9.3415e-05,-3.541e-09,3.7356e-06,3.7356e-06,1,0.746,1,0.05,0
1.1676e-06,4.6671e-08,0.99,0.000747,0,0.0061823,1.5409e-05,6.4375e-20,0,9.3415e-05,-3.5391e-09,3.7356e-06,3.7356e-06,1,0.747,1,0.05,0
1.1676e-06,4.6671e-08,0.99,0.000748,0,0.0062222,1.5407e-05,6.6069e-20,0,9.3415e-05,-3.5373e-09,3.7356e-06,3.7356e-06,1,0.748,1,0.05,0
1.1676e-06,4.6671e-08,0.99,0.000749,0,0.0062622,1.5405e-05,6.4375e-20,0,9.3415e-05,-3.5357e-09,3.7356e-06,3.7356e-06,1,0.749,1,0.05,0
1.1676e-06,4.6671e-08,0.99,0.00075,0,0.0063021,1.5402e-05,6.268e-20,0,9.3415e-05,-3.5341e-09,3.7356e-06,3.7356e-06,1,0.75,1,0.05,0
1.1676e-06,4.6671e-08,0.99,0.000751,0,0.0063421,1.54e-05,6.268e-20,0,9.3415e-05,-3.5327e-09,3.7356e-06,3.7356e-06,1,0.751,1,0.05,0
1.1676e-06,4.6671e-08,0.99,0.000752,0,0.006382,1.5398e-05,6.4375e-20,0,9.3415e-05,-3.5314e-09,3.7356e-06,3.7356e-06,1,0.752,1,0.05,0
1.1676e-06,4.6671e-08,0.99,0.000753,0,0.006422,1.5396e-05,6.6069e-20,0,9.3415e-05,-3.5302e-09,3.7356e-06,3.7356e-06,1,0.753,1,0.05,0
1.1676e-06,4.667e-08,0.99,0.000754,0,0.0064619,1.5394e-05,6.268e-20,0,9.3415e-05,-3.5291e-09,3.7356e-06,3.7356e-06,1,0.754,1,0.05,0
1.1676e-06,4.667e-08,0.99,0.000755,0,0.0065019,1.5391e-05,6.3527e-20,0,9.3415e-05,-3.5281e-09,3.7356e-06,3.7356e-06,1,0.755,1,0.05,0
1.1676e-06,4.667e-08,0.99,0.000756,0,0.0065419,1.5389e-05,6.3527e-20,0,9.3415e-05,-3.5272e-09,3.7356e-06,3.7356e-06,1,0.756,1,0.05,0
1.1676e-06,4.667e-08,0.99,0.000757,0,0.0065818,1.5387e-05,6.6069e-20,0,9.3415e-05,-3.5264e-09,3.7356e-06,3.7356e-06,1,0.757,1,0.05,0
1.1676e-06,4.667e-08,0.99,0.000758,0,0.0066218,1.5385e-05,6.4375e-20,0,9.3415e-05,-3.5257e-09,3.7356e-06,3.7356e-06,1,0.758,1,0.05,0
1.1676e-06,4.667e-08,0.99,0.000759,0,0.0066617,1.5382e-05,6.3527e-20,0,9.3414e-05,-3.525e-09,3.7356e-06,3.7356e-06,1,0.759,1,0.05,0
1.1676e-06,4.667e-08,0.99,0.00076,0,0.0067017,1.538e-05,6.4375e-20,0,9.3414e-05,-3.5244e-09,3.7356e-06,3.7356e-06,1,0.76,1,0.05,0
1.1676e-06,4.667e-08,0.99,0.000761,0,0.0067416,1.5378e-05,6.3527e-20,0,9.3414e-05,-3.5239e-09,3.7356e-06,3.7356e-06,1,0.761,1,0.05,0
1.1676e-06,4.667e-08,0.99,0.000762,0,0.0067816,1.5376e-05,6.4375e-20,0,9.3414e-05,-3.5234e-09,3.7356e-06,3.7356e-06,1,0.762,1,0.05,0
1.1676e-06,4.667e-08,0.99,0.000763,0,0.0068215,1.5374e-05,6.268e-20,0,9.3414e-05,-3.523e-09,3.7356e-06,3.7356e-06,1,0.763,1,0.05,0
1.1676e-06,4.667e-08,0.99,0.000764,0,0.0068615,1.5371e-05,6.4375e-20,0,9.3414e-05,-3.5227e-09,3.7356e-06,3.7356e-06,1,0.764,1,0.05,0
1.1676e-06,4.667e-08,0.99,0.000765,0,0.0069014,1.5369e-05,6.4375e-20,0,9.3414e-05,-3.5224e-09,3.7356e-06,3.7356e-06,1,0.765,1,0.05,0
1.1676e-06,4.667e-08,0.99,0.000766,0,0.0069414,1.5367e-05,6.4375e-20,0,9.3414e-05,-3.5221e-09,3.7356e-06,3.7356e-06,1,0.766,1,0.05,0
1.1676e-06,4.667e-08,0.99,0.000767,0,0.0069813,1.5365e-05,6.4375e-20,0,9.3414e-05,-3.5219e-09,3.7356e-06,3.7356e-06,1,0.767,1,0.05,0
1.1676e-06,4.667e-08,0.99,0.000768,0,0.0070213,1.5362e-05,6.268e-20,0,9.3414e-05,-3.5217e-09,3.7356e-06,3.7356e-06,1,0.768,1,0.05,0
1.1676e-06,4.667e-08,0.99,0.000769,0,0.0070612,1.536e-05,6.4375e-20,0,9.3414e-05,-3.5215e-09,3.7356e-06,3.7356e-06,1,0.769,1,0.05,0
1.1676e-06,4.667e-08,0.99,0.00077,0,0.0071012,1.5358e-05,6.3527e-20,0,9.3414e-05,-3.5213e-09,3.7356e-06,3.7356e-06,1,0.77,1,0.05,0
1.1676e-06,4.667e-08,0.99,0.000771,0,0.0071411,1.5356e-05,6.3527e-20,0,9.3414e-05,-3.5211e-09,3.7356e-06,3.7356e-06,1,0.771,1,0.05,0
1.1676e-06,4.667e-08,0.99,0.000772,0,0.0071811,1.5354e-05,6.4375e-20,0,9.3414e-05,-3.521e-09,3.7356e-06,3.7356e-06,1,0.772,1,0.05,0
1.1676e-06,4.667e-08,0.99,0.000773,0,0.007221,1.5351e-05,6.6069e-20,0,9.3414e-05,-3.5209e-09,3.7356e-06,3.7356e-06,1,0.773,1,0.05,0
1.1676e-06,4.667e-08,0.99,0.000774,0,0.007261,1.5349e-05,6.4375e-20,0,9.3414e-05,-3.5208e-09,3.7356e-06,3.7356e-06,1,0.774,1,0.05,0
1.1676e-06,4.667e-08,0.99,0.000775,0,0.0073009,1.5347e-05,6.3527e-20,0,9.3414e-05,-3.5207e-09,3.7356e-06,3.7356e-06,1,0.775,1,0.05,0
1.1676e-06,4.667e-08,0.99,0.000776,0,0.0073409,1.5345e-05,6.3527e-20,0,9.3414e-05,-3.5207e-09,3.7356e-06,3.7356e-06,1,0.776,1,0.05,0
1.1676e-06,4.667e-08,0.99,0.000777,0,0.0073808,1.5342e-05,6.268e-20,0,9.3414e-05,-3.5207e-09,3.7356e-06,3.7356e-06,1,0.777,1,0.05,0
1.1676e-06,4.667e-08,0.99,0.000778,0,0.0074208,1.534e-05,6.5222e-20,0,9.3414e-05,-3.5208e-09,3.7356e-06,3.7356e-06,1,0.778,1,0.05,0
1.1676e-06,4.667e-08,0.99,0.000779,0,0.0074608,1.5338e-05,6.4375e-20,0,9.3414e-05,-3.5208e-09,3.7356e-06,3.7356e-06,1,0.779,1,0.05,0
1.1676e-06,4.667e-08,0.99,0.00078,0,0.0075007,1.5336e-05,6.4375e-20,0,9.3414e-05,-3.5209e-09,3.7356e-06,3.7356e-06,1,0.78,1,0.05,0
1.1676e-06,4.667e-08,0.99,0.000781,0,0.0075407,1.5334e-05,6.5222e-20,0,9.3414e-05,-3.521e-09,3.7356e-06,3.7356e-06,1,0.781,1,0.05,0
1.1676e-06,4.667e-08,0.99,0.000782,0,0.0075806,1.5331e-05,6.4375e-20,0,9.3414e-05,-3.5211e-09,3.7356e-06,3.7356e-06,1,0.782,1,0.05,0
1.1676e-06,4.667e-08,0.99,0.000783,0,0.0076206,1.5329e-05,6.268e-20,0,9.3414e-05,-3.5212e-09,3.7356e-06,3.7356e-06,1,0.783,1,0.05,0
1.1676e-06,4.667e-08,0.99,0.000784,0,0.0076605,1.5327e-05,6.5222e-20,0,9.3414e-05,-3.5214e-09,3.7356e-06,3.7356e-06,1,0.784,1,0.05,0
1.1676e-06,4.667e-08,0.99,0.000785,0,0.0077005,1.5325e-05,6.268e-20,0,9.3414e-05,-3.5215e-09,3.7356e-06,3.7356e-06,1,0.785,1,0.05,0
1.1676e-06,4.667e-08,0.99,0.000786,0,0.0077404,1.5323e-05,6.268e-20,0,9.3414e-05,-3.5217e-09,3.7356e-06,3.7356e-06,1,0.786,1,0.05,0
1.1676e-06,4.667e-08,0.99,0.000787,0,0.0077804,1.532e-05,6.4375e-20,0,9.3414e-05,-3.5219e-09,3.7356e-06,3.7356e-06,1,0.787,1,0.05,0
1.1676e-06,4.667e-08,0.99,0.000788,0,0.0078203,1.5318e-05,6.4375e-20,0,9.3414e-05,-3.5221e-09,3.7356e-06,3.7356e-06,1,0.788,1,0.05,0
1.1676e-06,4.667e-08,0.99,0.000789,0,0.0078603,1.5316e-05,6.4375e-20,0,9.3414e-05,-3.5223e-09,3.7356e-06,3.7356e-06,1,0.789,1,0.05,0
1.1676e-06,4.667e-08,0.99,0.00079,0,0.0079002,1.5314e-05,6.268e-20,0,9.3414e-05,-3.5225e-09,3.7356e-06,3.7356e-06,1,0.79,1,0.05,0
1.1676e-06,4.667e-08,0.99,0.000791,0,0.0079402,1.5311e-05,6.3527e-20,0,9.3414e-05,-3.5227e-09,3.7356e-06,3.7356e-06,1,0.791,1,0.05,0
1.1676e-06,4.6669e-08,0.99,0.000792,0,0.0079801,1.5309e-05,6.4375e-20,0,9.3414e-05,-3.5229e-09,3.7356e-06,3.7356e-06,1,0.792,1,0.05,0
1.1676e-06,4.6669e-08,0.99,0.000793,0,0.0080201,1.5307e-05,6.4375e-20,0,9.3414e-05,-3.5232e-09,3.7356e-06,3.7356e-06,1,0.793,1,0.05,0
1.1676e-06,4.6669e-08,0.99,0.000794,0,0.00806,1.5305e-05,6.268e-20,0,9.3414e-05,-3.5234e-09,3.7356e-06,3.7356e-06,1,0.794,1,0.05,0
1.1676e-06,4.6669e-08,0.99,0.000795,0,0.0081,1.5303e-05,6.268e-20,0,9.3414e-05,-3.5236e-09,3.7356e-06,3.7356e-06,1,0.795,1,0.05,0
1.1676e-06,4.6669e-08,0.99,0.000796,0,0.0081399,1.53e-05,6.4375e-20,0,9.3414e-05,-3.5239e-09,3.7356e-06,3.7356e-06,1,0.796,1,0.05,0
1.1676e-06,4.6669e-08,0.99,0.000797,0,0.0081799,1.5298e-05,6.3527e-20,0,9.3414e-05,-3.5242e-09,3.7356e-06,3.7356e-06,1,0.797,1,0.05,0
1.1676e-06,4.6669e-08,0.99,0.000798,0,0.0082198,1.5296e-05,6.4375e-20,0,9.3414e-05,-3.5244e-09,3.7356e-06,3.7356e-06,1,0.798,1,0.05,0
1.1676e-06,4.6669e-08,0.99,0.000799,0,0.0082598,1.5294e-05,6.4375e-20,0,9.3414e-05,-3.5247e-09,3.7356e-06,3.7356e-06,1,0.799,1,0.05,0
1.1676e-06,4.6669e-08,0.99,0.0008,0,0.0082997,1.5291e-05,6.4375e-20,0,9.3414e-05,-3.525e-09,3.7356e-06,3.7356e-06,1,0.8,1,0.05,0
1.1676e-06,4.6669e-08,0.99,0.000801,0,0.0083397,1.5289e-05,6.4375e-20,0,9.3414e-05,-3.5253e-09,3.7356e-06,3.7356e-06,1,0.801,1,0.05,0
1.1676e-06,4.6669e-08,0.99,0.000802,0,0.0083797,1.5287e-05,6.3527e-20,0,9.3414e-05,-3.5256e-09,3.7356e-06,3.7356e-06,1,0.802,1,0.05,0
1.1676e-06,4.6669e-08,0.99,0.000803,0,0.0084196,1.5285e-05,6.268e-20,0,9.3414e-05,-3.5259e-09,3.7356e-06,3.7356e-06,1,0.803,1,0.05,0
1.1676e-06,4.6669e-08,0.99,0.000804,0,0.0084596,1.5283e-05,6.268e-20,0,9.3414e-05,-3.5262e-09,3.7356e-06,3.7356e-06,1,0.804,1,0.05,0
1.1676e-06,4.6669e-08,0.99,0.000805,0,0.0084995,1.528e-05,6.4375e-20,0,9.3413e-05,-3.5265e-09,3.7356e-06,3.7356e-06,1,0.805,1,0.05,0
1.1676e-06,4.6669e-08,0.99,0.000806,0,0.0085395,1.5278e-05,6.4375e-20,0,9.3413e-05,-3.5268e-09,3.7356e-06,3.7356e-06,1,0.806,1,0.05,0
1.1676e-06,4.6669e-08,0.99,0.000807,0,0.0085794,1.5276e-05,6.4375e-20,0,9.3413e-05,-3.5271e-09,3.7356e-06,3.7356e-06,1,0.807,1,0.05,0
1.1676e-06,4.6669e-08,0.99,0.000808,0,0.0086194,1.5274e-05,6.4375e-20,0,9.3413e-05,-3.5274e-09,3.7356e-06,3.7356e-06,1,0.808,1,0.05,0
1.1676e-06,4.6669e-08,0.99,0.000809,0,0.0086593,1.5271e-05,6.1833e-20,0,9.3413e-05,-3.5277e-09,3.7356e-06,3.7356e-06,1,0.809,1,0.05,0
1.1676e-06,4.6669e-08,0.99,0.00081,0,0.0086993,1.5269e-05,6.4375e-20,0,9.3413e-05,-3.528e-09,3.7356e-06,3.7356e-06,1,0.81,1,0.05,0
1.1676e-06,4.6669e-08,0.99,0.000811,0,0.0087392,1.5267e-05,6.1833e-20,0,9.3413e-05,-3.5284e-09,3.7356e-06,3.7356e-06,1,0.811,1,0.05,0
1.1676e-06,4.6669e-08,0.99,0.000812,0,0.0087792,1.5265e-05,6.3527e-20,0,9.3413e-05,-3.5287e-09,3.7356e-06,3.7356e-06,1,0.812,1,0.05,0
1.1676e-06,4.6669e-08,0.99,0.000813,0,0.0088191,1.5263e-05,6.4375e-20,0,9.3413e-05,-3.529e-09,3.7356e-06,3.7356e-06,1,0.813,1,0.05,0
1.1676e-06,4.6669e-08,0.99,0.000814,0,0.0088591,1.526e-05,6.3527e-20,0,9.3413e-05,-3.5293e-09,3.7356e-06,3.7356e-06,1,0.814,1,0.05,0
1.1676e-06,4.6669e-08,0.99,0.000815,0,0.008899,1.5258e-05,6.1833e-20,0,9.3413e-05,-3.5296e-09,3.7356e-06,3.7356e-06,1,0.815,1,0.05,0
1.1676e-06,4.6669e-08,0.99,0.000816,0,0.008939,1.5256e-05,6.268e-20,0,9.3413e-05,-3.53e-09,3.7356e-06,3.7356e-06,1,0.816,1,0.05,0
1.1676e-06,4.6669e-08,0.99,0.000817,0,0.0089789,1.5254e-05,6.268e-20,0,9.3413e-05,-3.5303e-09,3.7356e-06,3.7356e-06,1,0.817,1,0.05,0
1.1676e-06,4.6669e-08,0.99,0.000818,0,0.0090189,1.5251e-05,6.268e-20,0,9.3413e-05,-3.5306e-09,3.7356e-06,3.7356e-06,1,0.818,1,0.05,0
1.1676e-06,4.6669e-08,0.99,0.000819,0,0.0090588,1.5249e-05,6.3527e-20,0,9.3413e-05,-3.5309e-09,3.7356e-06,3.7356e-06,1,0.819,1,0.05,0
1.1676e-06,4.6669e-08,0.99,0.00082,0,0.0090988,1.5247e-05,6.4375e-20,0,9.3413e-05,-3.5313e-09,3.7356e-06,3.7356e-06,1,0.82,1,0.05,0
1.1676e-06,4.6669e-08,0.99,0.000821,0,0.0091387,1.5245e-05,6.4375e-20,0,9.3413e-05,-3.5316e-09,3.7356e-06,3.7356e-06,1,0.821,1,0.05,0
1.1676e-06,4.6669e-08,0.99,0.000822,0,0.0091787,1.5243e-05,6.4375e-20,0,9.3413e-05,-3.5319e-09,3.7356e-06,3.7356e-06,1,0.822,1,0.05,0
1.1676e-06,4.6669e-08,0.99,0.000823,0,0.0092186,1.524e-05,6.6069e-20,0,9.3413e-05,-3.5322e-09,3.7356e-06,3.7356e-06,1,0.823,1,0.05,0
1.1676e-06,4.6669e-08,0.99,0.000824,0,0.0092586,1.5238e-05,6.268e-20,0,9.3413e-05,-3.5326e-09,3.7356e-06,3.7356e-06,1,0.824,1,0.05,0
1.1676e-06,4.6669e-08,0.99,0.000825,0,0.0092985,1.5236e-05,6.268e-20,0,9.3413e-05,-3.5329e-09,3.7356e-06,3.7356e-06,1,0.825,1,0.05,0
1.1676e-06,4.6669e-08,0.99,0.000826,0,0.0093385,1.5234e-05,6.268e-20,0,9.3413e-05,-3.5332e-09,3.7356e-06,3.7356e-06,1,0.826,1,0.05,0
1.1676e-06,4.6669e-08,0.99,0.000827,0,0.0093784,1.5231e-05,6.268e-20,0,9.3413e-05,-3.5336e-09,3.7356e-06,3.7356e-06,1,0.827,1,0.05,0
1.1676e-06,4.6669e-08,0.99,0.000828,0,0.0094184,1.5229e-05,6.268e-20,0,9.3413e-05,-3.5339e-09,3.7356e-06,3.7356e-06,1,0.828,1,0.05,0
1.1676e-06,4.6669e-08,0.99,0.000829,0,0.0094583,1.5227e-05,6.268e-20,0,9.3413e-05,-3.5342e-09,3.7356e-06,3.7356e-06,1,0.829,1,0.05,0
1.1676e-06,4.6669e-08,0.99,0.00083,0,0.0094983,1.5225e-05,6.0986e-20,0,9.3413e-05,-3.5346e-09,3.7356e-06,3.7356e-06,1,0.83,1,0.05,0
1.1676e-06,4.6669e-08,0.99,0.000831,0,0.0095383,1.5222e-05,6.268e-20,0,9.3413e-05,-3.5349e-09,3.7356e-06,3.7356e-06,1,0.831,1,0.05,0
1.1676e-06,4.6669e-08,0.99,0.000832,0,0.0095782,1.522e-05,6.4375e-20,0,9.3413e-05,-3.5352e-09,3.7356e-06,3.7356e-06,1,0.832,1,0.05,0
1.1676e-06,4.6669e-08,0.99,0.000833,0,0.0096182,1.5218e-05,6.4375e-20,0,9.3413e-05,-3.5356e-09,3.7356e-06,3.7356e-06,1,0.833,1,0.05,0
1.1676e-06,4.6669e-08,0.99,0.000834,0,0.0096581,1.5216e-05,6.4375e-20,0,9.3413e-05,-3.5359e-09,3.7356e-06,3.7356e-06,1,0.834,1,0.05,0
1.1676e-06,4.6669e-08,0.99,0.000835,0,0.0096981,1.5214e-05,6.268e-20,0,9.3413e-05,-3.5362e-09,3.7355e-06,3.7355e-06,1,0.835,1,0.05,0
1.1676e-06,4.6669e-08,0.99,0.000836,0,0.009738,1.5211e-05,6.268e-20,0,9.3413e-05,-3.5366e-09,3.7355e-06,3.7355e-06,1,0.836,1,0.05,0
1.1676e-06,4.6669e-08,0.99,0.000837,0,0.009778,1.5209e-05,6.268e-20,0,9.3413e-05,-3.5369e-09,3.7355e-06,3.7355e-06,1,0.837,1,0.05,0
1.1676e-06,4.6669e-08,0.99,0.000838,0,0.0098179,1.5207e-05,6.5222e-20,0,9.3413e-05,-3.5372e-09,3.7355e-06,3.7355e-06,1,0.838,1,0.05,0
1.1676e-06,4.6669e-08,0.99,0.000839,0,0.0098579,1.5205e-05,6.0986e-20,0,9.3413e-05,-3.5376e-09,3.7355e-06,3.7355e-06,1,0.839,1,0.05,0
1.1676e-06,4.6669e-08,0.99,0.00084,0,0.0098978,1.5202e-05,6.268e-20,0,9.3413e-05,-3.5379e-09,3.7355e-06,3.7355e-06,1,0.84,1,0.05,0
1.1676e-06,4.6669e-08,0.99,0.000841,0,0.0099378,1.52e-05,6.4375e-20,0,9.3413e-05,-3.5382e-09,3.7355e-06,3.7355e-06,1,0.841,1,0.05,0
1.1676e-06,4.6669e-08,0.99,0.000842,0,0.0099777,1.5198e-05,6.3527e-20,0,9.3413e-05,-3.5385e-09,3.7355e-06,3.7355e-06,1,0.842,1,0.05,0
1.1676e-06,4.6669e-08,0.99,0.000843,0,0.010018,1.5196e-05,6.3527e-20,0,9.3413e-05,-3.5388e-09,3.7355e-06,3.7355e-06,1,0.843,1,0.05,0
1.1676e-06,4.6669e-08,0.99,0.000844,0,0.010058,1.5194e-05,6.268e-20,0,9.3413e-05,-3.5392e-09,3.7355e-06,3.7355e-06,1,0.844,1,0.05,0
1.1676e-06,4.6669e-08,0.99,0.000845,0,0.010098,1.5191e-05,6.4375e-20,0,9.3413e-05,-3.5395e-09,3.7355e-06,3.7355e-06,1,0.845,1,0.05,0
1.1676e-06,4.6669e-08,0.99,0.000846,0,0.010138,1.5189e-05,6.268e-20,0,9.3413e-05,-3.5398e-09,3.7355e-06,3.7355e-06,1,0.846,1,0.05,0
1.1676e-06,4.6669e-08,0.99,0.000847,0,0.010177,1.5187e-05,6.3527e-20,0,9.3413e-05,-3.5402e-09,3.7355e-06,3.7355e-06,1,0.847,1,0.05,0
1.1676e-06,4.6669e-08,0.99,0.000848,0,0.010217,1.5185e-05,6.268e-20,0,9.3413e-05,-3.5405e-09,3.7355e-06,3.7355e-06,1,0.848,1,0.05,0
1.1676e-06,4.6669e-08,0.99,0.000849,0,0.010257,1.5182e-05,6.268e-20,0,9.3413e-05,-3.5408e-09,3.7355e-06,3.7355e-06,1,0.849,1,0.05,0
1.1676e-06,4.6669e-08,0.99,0.00085,0,0.010297,1.518e-05,6.3527e-20,0,9.3413e-05,-3.5411e-09,3.7355e-06,3.7355e-06,1,0.85,1,0.05,0
1.1676e-06,4.6669e-08,0.99,0.000851,0,0.010337,1.5178e-05,6.3527e-20,0,9.3413e-05,-3.5414e-09,3.7355e-06,3.7355e-06,1,0.851,1,0.05,0
1.1676e-06,4.6669e-08,0.99,0.000852,0,0.010377,1.5176e-05,6.3527e-20,0,9.3413e-05,-3.5418e-09,3.7355e-06,3.7355e-06,1,0.852,1,0.05,0
1.1676e-06,4.6669e-08,0.99,0.000853,0,0.010417,1.5173e-05,6.268e-20,0,9.3413e-05,-3.5421e-09,3.7355e-06,3.7355e-06,1,0.853,1,0.05,0
1.1676e-06,4.6669e-08,0.99,0.000854,0,0.010457,1.5171e-05,6.3527e-20,0,9.3413e-05,-3.5424e-09,3.7355e-06,3.7355e-06,1,0.854,1,0.05,0
1.1676e-06,4.6669e-08,0.99,0.000855,0,0.010497,1.5169e-05,6.268e-20,0,9.3413e-05,-3.5427e-09,3.7355e-06,3.7355e-06,1,0.855,1,0.05,0
1.1676e-06,4.6669e-08,0.99,0.000856,0,0.010537,1.5167e-05,6.4375e-20,0,9.3413e-05,-3.5431e-09,3.7355e-06,3.7355e-06,1,0.856,1,0.05,0
1.1676e-06,4.6669e-08,0.99,0.000857,0,0.010577,1.5165e-05,6.268e-20,0,9.3413e-05,-3.5434e-09,3.7355e-06,3.7355e-06,1,0.857,1,0.05,0
1.1676e-06,4.6669e-08,0.99,0.000858,0,0.010617,1.5162e-05,6.4375e-20,0,9.3413e-05,-3.5437e-09,3.7355e-06,3.7355e-06,1,0.858,1,0.05,0
1.1676e-06,4.6669e-08,0.99,0.000859,0,0.010657,1.516e-05,6.3527e-20,0,9.3413e-05,-3.544e-09,3.7355e-06,3.7355e-06,1,0.859,1,0.05,0
1.1676e-06,4.6669e-08,0.99,0.00086,0,0.010697,1.5158e-05,6.1833e-20,0,9.3413e-05,-3.5443e-09,3.7355e-06,3.7355e-06,1,0.86,1,0.05,0
1.1676e-06,4.6669e-08,0.99,0.000861,0,0.010737,1.5156e-05,6.3527e-20,0,9.3413e-05,-3.5446e-09,3.7355e-06,3.7355e-06,1,0.861,1,0.05,0
1.1676e-06,4.6669e-08,0.99,0.000862,0,0.010777,1.5153e-05,6.5222e-20,0,9.3412e-05,-3.545e-09,3.7355e-06,3.7355e-06,1,0.862,1,0.05,0
1.1676e-06,4.6669e-08,0.99,0.000863,0,0.010817,1.5151e-05,6.4375e-20,0,9.3412e-05,-3.5453e-09,3.7355e-06,3.7355e-06,1,0.863,1,0.05,0
1.1676e-06,4.6669e-08,0.99,0.000864,0,0.010857,1.5149e-05,6.268e-20,0,9.3412e-05,-3.5456e-09,3.7355e-06,3.7355e-06,1,0.864,1,0.05,0
1.1676e-06,4.6669e-08,0.99,0.000865,0,0.010897,1.5147e-05,6.268e-20,0,9.3412e-05,-3.5459e-09,3.7355e-06,3.7355e-06,1,0.865,1,0.05,0
1.1676e-06,4.6669e-08,0.99,0.000866,0,0.010937,1.5144e-05,6.268e-20,0,9.3412e-05,-3.5462e-09,3.7355e-06,3.7355e-06,1,0.866,1,0.05,0
1.1676e-06,4.6669e-08,0.99,0.000867,0,0.010977,1.5142e-05,6.268e-20,0,9.3412e-05,-3.5465e-09,3.7355e-06,3.7355e-06,1,0.867,1,0.05,0
1.1676e-06,4.6669e-08,0.99,0.000868,0,0.011016,1.514e-05,6.268e-20,0,9.3412e-05,-3.5468e-09,3.7355e-06,3.7355e-06,1,0.868,1,0.05,0
1.1676e-06,4.6669e-08,0.99,0.000869,0,0.011056,1.5138e-05,6.3527e-20,0,9.3412e-05,-3.5472e-09,3.7355e-06,3.7355e-06,1,0.869,1,0.05,0
1.1676e-06,4.6669e-08,0.99,0.00087,0,0.011096,1.5135e-05,6.268e-20,0,9.3412e-05,-3.5475e-09,3.7355e-06,3.7355e-06,1,0.87,1,0.05,0
1.1676e-06,4.6669e-08,0.99,0.000871,0,0.011136,1.5133e-05,6.4375e-20,0,9.3412e-05,-3.5478e-09,3.7355e-06,3.7355e-06,1,0.871,1,0.05,0
1.1676e-06,4.6669e-08,0.99,0.000872,0,0.011176,1.5131e-05,6.268e-20,0,9.3412e-05,-3.5481e-09,3.7355e-06,3.7355e-06,1,0.872,1,0.05,0
1.1676e-06,4.6669e-08,0.99,0.000873,0,0.011216,1.5129e-05,6.4375e-20,0,9.3412e-05,-3.5484e-09,3.7355e-06,3.7355e-06,1,0.873,1,0.05,0
1.1676e-06,4.6669e-08,0.99,0.000874,0,0.011256,1.5127e-05,6.3527e-20,0,9.3412e-05,-3.5487e-09,3.7355e-06,3.7355e-06,1,0.874,1,0.05,0
1.1676e-06,4.6669e-08,0.99,0.000875,0,0.011296,1.5124e-05,6.1833e-20,0,9.3412e-05,-3.549e-09,3.7355e-06,3.7355e-06,1,0.875,1,0.05,0
1.1676e-06,4.6669e-08,0.99,0.000876,0,0.011336,1.5122e-05,6.268e-20,0,9.3412e-05,-3.5493e-09,3.7355e-06,3.7355e-06,1,0.876,1,0.05,0
1.1676e-06,4.6669e-08,0.99,0.000877,0,0.011376,1.512e-05,6.3527e-20,0,9.3412e-05,-3.5496e-09,3.7355e-06,3.7355e-06,1,0.877,1,0.05,0
1.1676e-06,4.6669e-08,0.99,0.000878,0,0.011416,1.5118e-05,6.4375e-20,0,9.3412e-05,-3.5499e-09,3.7355e-06,3.7355e-06,1,0.878,1,0.05,0
1.1676e-06,4.6669e-08,0.99,0.000879,0,0.011456,1.5115e-05,6.3527e-20,0,9.3412e-05,-3.5503e-09,3.7355e-06,3.7355e-06,1,0.879,1,0.05,0
1.1676e-06,4.6669e-08,0.99,0.00088,0,0.011496,1.5113e-05,6.4375e-20,0,9.3412e-05,-3.5506e-09,3.7355e-06,3.7355e-06,1,0.88,1,0.05,0
1.1676e-06,4.6669e-08,0.99,0.000881,0,0.011536,1.5111e-05,6.0986e-20,0,9.3412e-05,-3.5509e-09,3.7355e-06,3.7355e-06,1,0.881,1,0.05,0
1.1676e-06,4.6669e-08,0.99,0.000882,0,0.011576,1.5109e-05,6.268e-20,0,9.3412e-05,-3.5512e-09,3.7355e-06,3.7355e-06,1,0.882,1,0.05,0
1.1676e-06,4.6669e-08,0.99,0.000883,0,0.011616,1.5106e-05,6.4375e-20,0,9.3412e-05,-3.5515e-09,3.7355e-06,3.7355e-06,1,0.883,1,0.05,0
1.1676e-06,4.6669e-08,0.99,0.000884,0,0.011656,1.5104e-05,6.3527e-20,0,9.3412e-05,-3.5518e-09,3.7355e-06,3.7355e-06,1,0.884,1,0.05,0
1.1676e-06,4.6669e-08,0.99,0.000885,0,0.011696,1.5102e-05,6.1833e-20,0,9.3412e-05,-3.5521e-09,3.7355e-06,3.7355e-06,1,0.885,1,0.05,0
1.1676e-06,4.6669e-08,0.99,0.000886,0,0.011736,1.51e-05,6.4375e-20,0,9.3412e-05,-3.5524e-09,3.7355e-06,3.7355e-06,1,0.886,1,0.05,0
1.1676e-06,4.6669e-08,0.99,0.000887,0,0.011776,1.5097e-05,6.268e-20,0,9.3412e-05,-3.5527e-09,3.7355e-06,3.7355e-06,1,0.887,1,0.05,0
1.1676e-06,4.6669e-08,0.99,0.000888,0,0.011815,1.5095e-05,6.268e-20,0,9.3412e-05,-3.553e-09,3.7355e-06,3.7355e-06,1,0.888,1,0.05,0
1.1676e-06,4.6669e-08,0.99,0.000889,0,0.011855,1.5093e-05,6.1833e-20,0,9.3412e-05,-3.5533e-09,3.7355e-06,3.7355e-06,1,0.889,1,0.05,0
1.1676e-06,4.6669e-08,0.99,0.00089,0,0.011895,1.5091e-05,6.4375e-20,0,9.3412e-05,-3.5536e-09,3.7355e-06,3.7355e-06,1,0.89,1,0.05,0
1.1676e-06,4.6669e-08,0.99,0.000891,0,0.011935,1.5088e-05,6.0986e-20,0,9.3412e-05,-3.5539e-09,3.7355e-06,3.7355e-06,1,0.891,1,0.05,0
1.1676e-06,4.6669e-08,0.99,0.000892,0,0.011975,1.5086e-05,6.3527e-20,0,9.3412e-05,-3.5542e-09,3.7355e-06,3.7355e-06,1,0.892,1,0.05,0
1.1676e-06,4.6669e-08,0.99,0.000893,0,0.012015,1.5084e-05,6.268e-20,0,9.3412e-05,-3.5545e-09,3.7355e-06,3.7355e-06,1,0.893,1,0.05,0
1.1676e-06,4.6669e-08,0.99,0.000894,0,0.012055,1.5082e-05,6.5222e-20,0,9.3412e-05,-3.5548e-09,3.7355e-06,3.7355e-06,1,0.894,1,0.05,0
1.1676e-06,4.6669e-08,0.99,0.000895,0,0.012095,1.508e-05,6.268e-20,0,9.3412e-05,-3.5551e-09,3.7355e-06,3.7355e-06,1,0.895,1,0.05,0
1.1676e-06,4.6669e-08,0.99,0.000896,0,0.012135,1.5077e-05,6.4375e-20,0,9.3412e-05,-3.5554e-09,3.7355e-06,3.7355e-06,1,0.896,1,0.05,0
1.1676e-06,4.6669e-08,0.99,0.000897,0,0.012175,1.5075e-05,6.3527e-20,0,9.3412e-05,-3.5557e-09,3.7355e-06,3.7355e-06,1,0.897,1,0.05,0
1.1676e-06,4.6669e-08,0.99,0.000898,0,0.012215,1.5073e-05,6.4375e-20,0,9.3412e-05,-3.556e-09,3.7355e-06,3.7355e-06,1,0.898,1,0.05,0
1.1676e-06,4.6669e-08,0.99,0.000899,0,0.012255,1.5071e-05,6.268e-20,0,9.3412e-05,-3.5563e-09,3.7355e-06,3.7355e-06,1,0.899,1,0.05,0
1.1676e-06,4.6669e-08,0.99,0.0009,0,0.012295,1.5068e-05,6.268e-20,0,9.3412e-05,-3.5566e-09,3.7355e-06,3.7355e-06,1,0.9,1,0.05,0
1.1676e-06,4.6669e-08,0.99,0.000901,0,0.012335,1.5066e-05,6.268e-20,0,9.3412e-05,-3.5568e-09,3.7355e-06,3.7355e-06,1,0.901,1,0.05,0
1.1676e-06,4.6669e-08,0.99,0.000902,0,0.012375,1.5064e-05,6.3527e-20,0,9.3412e-05,-3.5571e-09,3.7355e-06,3.7355e-06,1,0.902,1,0.05,0
1.1676e-06,4.6669e-08,0.99,0.000903,0,0.012415,1.5062e-05,6.0139e-20,0,9.3412e-05,-3.5575e-09,3.7355e-06,3.7355e-06,1,0.903,1,0.05,0
1.1676e-06,4.6669e-08,0.99,0.000904,0,0.012455,1.5059e-05,6.268e-20,0,9.3412e-05,-3.5577e-09,3.7355e-06,3.7355e-06,1,0.904,1,0.05,0
1.1676e-06,4.6669e-08,0.99,0.000905,0,0.012495,1.5057e-05,6.0986e-20,0,9.3412e-05,-3.558e-09,3.7355e-06,3.7355e-06,1,0.905,1,0.05,0
1.1676e-06,4.6669e-08,0.99,0.000906,0,0.012535,1.5055e-05,6.268e-20,0,9.3412e-05,-3.5583e-09,3.7355e-06,3.7355e-06,1,0.906,1,0.05,0
1.1676e-06,4.6669e-08,0.99,0.000907,0,0.012575,1.5053e-05,6.1833e-20,0,9.3412e-05,-3.5586e-09,3.7355e-06,3.7355e-06,1,0.907,1,0.05,0
1.1676e-06,4.6669e-08,0.99,0.000908,0,0.012615,1.505e-05,6.1833e-20,0,9.3412e-05,-3.5589e-09,3.7355e-06,3.7355e-06,1,0.908,1,0.05,0
1.1676e-06,4.6669e-08,0.99,0.000909,0,0.012654,1.5048e-05,6.268e-20,0,9.3412e-05,-3.5592e-09,3.7355e-06,3.7355e-06,1,0.909,1,0.05,0
1.1676e-06,4.6669e-08,0.99,0.00091,0,0.012694,1.5046e-05,6.0986e-20,0,9.3412e-05,-3.5595e-09,3.7355e-06,3.7355e-06,1,0.91,1,0.05,0
1.1676e-06,4.6668e-08,0.99,0.000911,0,0.012734,1.5044e-05,6.4375e-20,0,9.3412e-05,-3.5597e-09,3.7355e-06,3.7355e-06,1,0.911,1,0.05,0
1.1676e-06,4.6668e-08,0.99,0.000912,0,0.012774,1.5041e-05,6.3527e-20,0,9.3412e-05,-3.56e-09,3.7355e-06,3.7355e-06,1,0.912,1,0.05,0
1.1676e-06,4.6668e-08,0.99,0.000913,0,0.012814,1.5039e-05,6.268e-20,0,9.3412e-05,-3.5603e-09,3.7355e-06,3.7355e-06,1,0.913,1,0.05,0
1.1676e-06,4.6668e-08,0.99,0.000914,0,0.012854,1.5037e-05,6.3527e-20,0,9.3412e-05,-3.5606e-09,3.7355e-06,3.7355e-06,1,0.914,1,0.05,0
1.1676e-06,4.6668e-08,0.99,0.000915,0,0.012894,1.5035e-05,6.268e-20,0,9.3412e-05,-3.5609e-09,3.7355e-06,3.7355e-06,1,0.915,1,0.05,0
1.1676e-06,4.6668e-08,0.99,0.000916,0,0.012934,1.5032e-05,6.268e-20,0,9.3412e-05,-3.5612e-09,3.7355e-06,3.7355e-06,1,0.916,1,0.05,0
1.1676e-06,4.6668e-08,0.99,0.000917,0,0.012974,1.503e-05,6.268e-20,0,9.3412e-05,-3.5615e-09,3.7355e-06,3.7355e-06,1,0.917,1,0.05,0
1.1676e-06,4.6668e-08,0.99,0.000918,0,0.013014,1.5028e-05,6.0139e-20,0,9.3412e-05,-3.5617e-09,3.7355e-06,3.7355e-06,1,0.918,1,0.05,0
1.1676e-06,4.6668e-08,0.99,0.000919,0,0.013054,1.5026e-05,6.4375e-20,0,9.3412e-05,-3.562e-09,3.7355e-06,3.7355e-06,1,0.919,1,0.05,0
1.1676e-06,4.6668e-08,0.99,0.00092,0,0.013094,1.5023e-05,6.268e-20,0,9.3412e-05,-3.5623e-09,3.7355e-06,3.7355e-06,1,0.92,1,0.05,0
1.1676e-06,4.6668e-08,0.99,0.000921,0,0.013134,1.5021e-05,6.0986e-20,0,9.3412e-05,-3.5626e-09,3.7355e-06,3.7355e-06,1,0.921,1,0.05,0
1.1676e-06,4.6668e-08,0.99,0.000922,0,0.013174,1.5019e-05,6.1833e-20,0,9.3412e-05,-3.5629e-09,3.7355e-06,3.7355e-06,1,0.922,1,0.05,0
1.1676e-06,4.6668e-08,0.99,0.000923,0,0.013214,1.5017e-05,6.268e-20,0,9.3412e-05,-3.5632e-09,3.7355e-06,3.7355e-06,1,0.923,1,0.05,0
1.1676e-06,4.6668e-08,0.99,0.000924,0,0.013254,1.5014e-05,6.268e-20,0,9.3412e-05,-3.5634e-09,3.7355e-06,3.7355e-06,1,0.924,1,0.05,0
1.1676e-06,4.6668e-08,0.99,0.000925,0,0.013294,1.5012e-05,6.0986e-20,0,9.3412e-05,-3.5637e-09,3.7355e-06,3.7355e-06,1,0.925,1,0.05,0
1.1676e-06,4.6668e-08,0.99,0.000926,0,0.013334,1.501e-05,6.268e-20,0,9.3412e-05,-3.564e-09,3.7355e-06,3.7355e-06,1,0.926,1,0.05,0
1.1676e-06,4.6668e-08,0.99,0.000927,0,0.013374,1.5008e-05,6.268e-20,0,9.3412e-05,-3.5643e-09,3.7355e-06,3.7355e-06,1,0.927,1,0.05,0
1.1676e-06,4.6668e-08,0.99,0.000928,0,0.013414,1.5006e-05,6.268e-20,0,9.3411e-05,-3.5645e-09,3.7355e-06,3.7355e-06,1,0.928,1,0.05,0
1.1676e-06,4.6668e-08,0.99,0.000929,0,0.013453,1.5003e-05,5.9292e-20,0,9.3411e-05,-3.5648e-09,3.7355e-06,3.7355e-06,1,0.929,1,0.05,0
1.1676e-06,4.6668e-08,0.99,0.00093,0,0.013493,1.5001e-05,6.3527e-20,0,9.3411e-05,-3.5651e-09,3.7355e-06,3.7355e-06,1,0.93,1,0.05,0
1.1676e-06,4.6668e-08,0.99,0.000931,0,0.013533,1.4999e-05,6.268e-20,0,9.3411e-05,-3.5654e-09,3.7355e-06,3.7355e-06,1,0.931,1,0.05,0
1.1676e-06,4.6668e-08,0.99,0.000932,0,0.013573,1.4997e-05,6.0986e-20,0,9.3411e-05,-3.5657e-09,3.7355e-06,3.7355e-06,1,0.932,1,0.05,0
1.1676e-06,4.6668e-08,0.99,0.000933,0,0.013613,1.4994e-05,6.268e-20,0,9.3411e-05,-3.566e-09,3.7355e-06,3.7355e-06,1,0.933,1,0.05,0
1.1676e-06,4.6668e-08,0.99,0.000934,0,0.013653,1.4992e-05,6.268e-20,0,9.3411e-05,-3.5662e-09,3.7355e-06,3.7355e-06,1,0.934,1,0.05,0
1.1676e-06,4.6668e-08,0.99,0.000935,0,0.013693,1.499e-05,6.268e-20,0,9.3411e-05,-3.5665e-09,3.7355e-06,3.7355e-06,1,0.935,1,0.05,0
1.1676e-06,4.6668e-08,0.99,0.000936,0,0.013733,1.4988e-05,6.1833e-20,0,9.3411e-05,-3.5668e-09,3.7355e-06,3.7355e-06,1,0.936,1,0.05,0
1.1676e-06,4.6668e-08,0.99,0.000937,0,0.013773,1.4985e-05,6.4375e-20,0,9.3411e-05,-3.567e-09,3.7355e-06,3.7355e-06,1,0.937,1,0.05,0
1.1676e-06,4.6668e-08,0.99,0.000938,0,0.013813,1.4983e-05,6.268e-20,0,9.3411e-05,-3.5673e-09,3.7355e-06,3.7355e-06,1,0.938,1,0.05,0
1.1676e-06,4.6668e-08,0.99,0.000939,0,0.013853,1.4981e-05,6.0986e-20,0,9.3411e-05,-3.5676e-09,3.7355e-06,3.7355e-06,1,0.939,1,0.05,0
1.1676e-06,4.6668e-08,0.99,0.00094,0,0.013893,1.4979e-05,6.268e-20,0,9.3411e-05,-3.5679e-09,3.7355e-06,3.7355e-06,1,0.94,1,0.05,0
1.1676e-06,4.6668e-08,0.99,0.000941,0,0.013933,1.4976e-05,6.0139e-20,0,9.3411e-05,-3.5681e-09,3.7355e-06,3.7355e-06,1,0.941,1,0.05,0
1.1676e-06,4.6668e-08,0.99,0.000942,0,0.013973,1.4974e-05,6.0986e-20,0,9.3411e-05,-3.5684e-09,3.7355e-06,3.7355e-06,1,0.942,1,0.05,0
1.1676e-06,4.6668e-08,0.99,0.000943,0,0.014013,1.4972e-05,6.268e-20,0,9.3411e-05,-3.5687e-09,3.7355e-06,3.7355e-06,1,0.943,1,0.05,0
1.1676e-06,4.6668e-08,0.99,0.000944,0,0.014053,1.497e-05,6.268e-20,0,9.3411e-05,-3.5689e-09,3.7355e-06,3.7355e-06,1,0.944,1,0.05,0
1.1676e-06,4.6668e-08,0.99,0.000945,0,0.014093,1.4967e-05,6.1833e-20,0,9.3411e-05,-3.5692e-09,3.7355e-06,3.7355e-06,1,0.945,1,0.05,0
1.1676e-06,4.6668e-08,0.99,0.000946,0,0.014133,1.4965e-05,6.0139e-20,0,9.3411e-05,-3.5695e-09,3.7355e-06,3.7355e-06,1,0.946,1,0.05,0
1.1676e-06,4.6668e-08,0.99,0.000947,0,0.014173,1.4963e-05,6.268e-20,0,9.3411e-05,-3.5697e-09,3.7355e-06,3.7355e-06,1,0.947,1,0.05,0
1.1676e-06,4.6668e-08,0.99,0.000948,0,0.014213,1.4961e-05,6.0139e-20,0,9.3411e-05,-3.57e-09,3.7355e-06,3.7355e-06,1,0.948,1,0.05,0
1.1676e-06,4.6668e-08,0.99,0.000949,0,0.014253,1.4958e-05,6.0986e-20,0,9.3411e-05,-3.5703e-09,3.7355e-06,3.7355e-06,1,0.949,1,0.05,0
1.1676e-06,4.6668e-08,0.99,0.00095,0,0.014292,1.4956e-05,6.268e-20,0,9.3411e-05,-3.5705e-09,3.7355e-06,3.7355e-06,1,0.95,1,0.05,0
1.1676e-06,4.6668e-08,0.99,0.000951,0,0.014332,1.4954e-05,6.268e-20,0,9.3411e-05,-3.5708e-09,3.7355e-06,3.7355e-06,1,0.951,1,0.05,0
1.1676e-06,4.6668e-08,0.99,0.000952,0,0.014372,1.4952e-05,6.268e-20,0,9.3411e-05,-3.5711e-09,3.7355e-06,3.7355e-06,1,0.952,1,0.05,0
1.1676e-06,4.6668e-08,0.99,0.000953,0,0.014412,1.4949e-05,6.0986e-20,0,9.3411e-05,-3.5713e-09,3.7355e-06,3.7355e-06,1,0.953,1,0.05,0
1.1676e-06,4.6668e-08,0.99,0.000954,0,0.014452,1.4947e-05,6.268e-20,0,9.3411e-05,-3.5716e-09,3.7355e-06,3.7355e-06,1,0.954,1,0.05,0
1.1676e-06,4.6668e-08,0.99,0.000955,0,0.014492,1.4945e-05,6.0139e-20,0,9.3411e-05,-3.5719e-09,3.7355e-06,3.7355e-06,1,0.955,1,0.05,0
1.1676e-06,4.6668e-08,0.99,0.000956,0,0.014532,1.4943e-05,6.268e-20,0,9.3411e-05,-3.5721e-09,3.7355e-06,3.7355e-06,1,0.956,1,0.05,0
1.1676e-06,4.6668e-08,0.99,0.000957,0,0.014572,1.494e-05,6.268e-20,0,9.3411e-05,-3.5724e-09,3.7355e-06,3.7355e-06,1,0.957,1,0.05,0
1.1676e-06,4.6668e-08,0.99,0.000958,0,0.014612,1.4938e-05,6.4375e-20,0,9.3411e-05,-3.5727e-09,3.7355e-06,3.7355e-06,1,0.958,1,0.05,0
1.1676e-06,4.6668e-08,0.99,0.000959,0,0.014652,1.4936e-05,6.1833e-20,0,9.3411e-05,-3.5729e-09,3.7355e-06,3.7355e-06,1,0.959,1,0.05,0
1.1676e-06,4.6668e-08,0.99,0.00096,0,0.014692,1.4934e-05,6.268e-20,0,9.3411e-05,-3.5732e-09,3.7355e-06,3.7355e-06,1,0.96,1,0.05,0
1.1676e-06,4.6668e-08,0.99,0.000961,0,0.014732,1.4931e-05,6.0986e-20,0,9.3411e-05,-3.5735e-09,3.7355e-06,3.7355e-06,1,0.961,1,0.05,0
1.1676e-06,4.6668e-08,0.99,0.000962,0,0.014772,1.4929e-05,6.268e-20,0,9.3411e-05,-3.5737e-09,3.7355e-06,3.7355e-06,1,0.962,1,0.05,0
1.1676e-06,4.6668e-08,0.99,0.000963,0,0.014812,1.4927e-05,6.268e-20,0,9.3411e-05,-3.574e-09,3.7355e-06,3.7355e-06,1,0.963,1,0.05,0
1.1676e-06,4.6668e-08,0.99,0.000964,0,0.014852,1.4925e-05,6.0986e-20,0,9.3411e-05,-3.5742e-09,3.7355e-06,3.7355e-06,1,0.964,1,0.05,0
1.1676e-06,4.6668e-08,0.99,0.000965,0,0.014892,1.4922e-05,6.0986e-20,0,9.3411e-05,-3.5745e-09,3.7355e-06,3.7355e-06,1,0.965,1,0.05,0
1.1676e-06,4.6668e-08,0.99,0.000966,0,0.014932,1.492e-05,6.268e-20,0,9.3411e-05,-3.5747e-09,3.7355e-06,3.7355e-06,1,0.966,1,0.05,0
1.1676e-06,4.6668e-08,0.99,0.000967,0,0.014972,1.4918e-05,6.0986e-20,0,9.3411e-05,-3.575e-09,3.7355e-06,3.7355e-06,1,0.967,1,0.05,0
1.1676e-06,4.6668e-08,0.99,0.000968,0,0.015012,1.4916e-05,6.0986e-20,0,9.3411e-05,-3.5753e-09,3.7355e-06,3.7355e-06,1,0.968,1,0.05,0
1.1676e-06,4.6668e-08,0.99,0.000969,0,0.015052,1.4913e-05,6.0986e-20,0,9.3411e-05,-3.5755e-09,3.7355e-06,3.7355e-06,1,0.969,1,0.05,0
1.1676e-06,4.6668e-08,0.99,0.00097,0,0.015091,1.4911e-05,6.1833e-20,0,9.3411e-05,-3.5758e-09,3.7355e-06,3.7355e-06,1,0.97,1,0.05,0
1.1676e-06,4.6668e-08,0.99,0.000971,0,0.015131,1.4909e-05,6.268e-20,0,9.3411e-05,-3.576e-09,3.7355e-06,3.7355e-06,1,0.971,1,0.05,0
1.1676e-06,4.6668e-08,0.99,0.000972,0,0.015171,1.4907e-05,6.0986e-20,0,9.3411e-05,-3.5763e-09,3.7355e-06,3.7355e-06,1,0.972,1,0.05,0
1.1676e-06,4.6668e-08,0.99,0.000973,0,0.015211,1.4904e-05,5.9292e-20,0,9.3411e-05,-3.5765e-09,3.7355e-06,3.7355e-06,1,0.973,1,0.05,0
1.1676e-06,4.6668e-08,0.99,0.000974,0,0.015251,1.4902e-05,6.1833e-20,0,9.3411e-05,-3.5768e-09,3.7355e-06,3.7355e-06,1,0.974,1,0.05,0
1.1676e-06,4.6668e-08,0.99,0.000975,0,0.015291,1.49e-05,6.1833e-20,0,9.3411e-05,-3.577e-09,3.7355e-06,3.7355e-06,1,0.975,1,0.05,0
1.1676e-06,4.6668e-08,0.99,0.000976,0,0.015331,1.4898e-05,6.1833e-20,0,9.3411e-05,-3.5773e-09,3.7355e-06,3.7355e-06,1,0.976,1,0.05,0
1.1676e-06,4.6668e-08,0.99,0.000977,0,0.015371,1.4895e-05,6.1833e-20,0,9.3411e-05,-3.5776e-09,3.7355e-06,3.7355e-06,1,0.977,1,0.05,0
1.1676e-06,4.6668e-08,0.99,0.000978,0,0.015411,1.4893e-05,6.1833e-20,0,9.3411e-05,-3.5778e-09,3.7355e-06,3.7355e-06,1,0.978,1,0.05,0
1.1676e-06,4.6668e-08,0.99,0.000979,0,0.015451,1.4891e-05,6.268e-20,0,9.3411e-05,-3.5781e-09,3.7355e-06,3.7355e-06,1,0.979,1,0.05,0
1.1676e-06,4.6668e-08,0.99,0.00098,0,0.015491,1.4888e-05,6.268e-20,0,9.3411e-05,-3.5783e-09,3.7355e-06,3.7355e-06,1,0.98,1,0.05,0
1.1676e-06,4.6668e-08,0.99,0.000981,0,0.015531,1.4886e-05,6.268e-20,0,9.3411e-05,-3.5786e-09,3.7355e-06,3.7355e-06,1,0.981,1,0.05,0
1.1676e-06,4.6668e-08,0.99,0.000982,0,0.015571,1.4884e-05,6.268e-20,0,9.3411e-05,-3.5788e-09,3.7355e-06,3.7355e-06,1,0.982,1,0.05,0
1.1676e-06,4.6668e-08,0.99,0.000983,0,0.015611,1.4882e-05,6.0986e-20,0,9.3411e-05,-3.5791e-09,3.7355e-06,3.7355e-06,1,0.983,1,0.05,0
1.1676e-06,4.6668e-08,0.99,0.000984,0,0.015651,1.4879e-05,6.268e-20,0,9.3411e-05,-3.5793e-09,3.7355e-06,3.7355e-06,1,0.984,1,0.05,0
1.1676e-06,4.6668e-08,0.99,0.000985,0,0.015691,1.4877e-05,6.1833e-20,0,9.3411e-05,-3.5796e-09,3.7355e-06,3.7355e-06,1,0.985,1,0.05,0
1.1676e-06,4.6668e-08,0.99,0.000986,0,0.015731,1.4875e-05,6.4375e-20,0,9.3411e-05,-3.5798e-09,3.7355e-06,3.7355e-06,1,0.986,1,0.05,0
1.1676e-06,4.6668e-08,0.99,0.000987,0,0.015771,1.4873e-05,6.268e-20,0,9.3411e-05,-3.5801e-09,3.7355e-06,3.7355e-06,1,0.987,1,0.05,0
1.1676e-06,4.6668e-08,0.99,0.000988,0,0.015811,1.487e-05,6.0986e-20,0,9.3411e-05,-3.5803e-09,3.7355e-06,3.7355e-06,1,0.988,1,0.05,0
1.1676e-06,4.6668e-08,0.99,0.000989,0,0.015851,1.4868e-05,6.0986e-20,0,9.3411e-05,-3.5806e-09,3.7355e-06,3.7355e-06,1,0.989,1,0.05,0
1.1676e-06,4.6668e-08,0.99,0.00099,0,0.01589,1.4866e-05,6.0986e-20,0,9.3411e-05,-3.5808e-09,3.7355e-06,3.7355e-06,1,0.99,1,0.05,0
1.1676e-06,4.6668e-08,0.99,0.000991,0,0.01593,1.4864e-05,6.0139e-20,0,9.3411e-05,-3.5811e-09,3.7355e-06,3.7355e-06,1,0.991,1,0.05,0
1.1676e-06,4.6668e-08,0.99,0.000992,0,0.01597,1.4861e-05,6.268e-20,0,9.3411e-05,-3.5813e-09,3.7355e-06,3.7355e-06,1,0.992,1,0.05,0
1.1676e-06,4.6668e-08,0.99,0.000993,0,0.01601,1.4859e-05,6.4375e-20,0,9.3411e-05,-3.5816e-09,3.7355e-06,3.7355e-06,1,0.993,1,0.05,0
1.1676e-06,4.6668e-08,0.99,0.000994,0,0.01605,1.4857e-05,6.268e-20,0,9.3411e-05,-3.5818e-09,3.7355e-06,3.7355e-06,1,0.994,1,0.05,0
1.1676e-06,4.6668e-08,0.99,0.000995,0,0.01609,1.4855e-05,6.1833e-20,0,9.3411e-05,-3.5821e-09,3.7355e-06,3.7355e-06,1,0.995,1,0.05,0
1.1676e-06,4.6668e-08,0.99,0.000996,0,0.01613,1.4852e-05,6.268e-20,0,9.3411e-05,-3.5823e-09,3.7355e-06,3.7355e-06,1,0.996,1,0.05,0
1.1676e-06,4.6668e-08,0.99,0.000997,0,0.01617,1.485e-05,6.0986e-20,0,9.3411e-05,-3.5825e-09,3.7355e-06,3.7355e-06,1,0.997,1,0.05,0
1.1676e-06,4.6668e-08,0.99,0.000998,0,0.01621,1.4848e-05,6.268e-20,0,9.3411e-05,-3.5828e-09,3.7355e-06,3.7355e-06,1,0.998,1,0.05,0
1.1676e-06,4.6668e-08,0.99,0.000999,0,0.01625,1.4846e-05,6.268e-20,0,9.3411e-05,-3.583e-09,3.7355e-06,3.7355e-06,1,0.999,1,0.05,0
1.1676e-06,4.6668e-08,0.99,0.001,0,0.01629,1.4843e-05,6.268e-20,0,9.3411e-05,-3.5833e-09,3.7355e-06,3.7355e-06,1,1,1,0.05,0
