"NodalForces:0","NodalForces:1","damage","displacement:0","displacement:1","epsilon_xx","epsilon_xy","epsilon_yy","epsilon_zz","sigma_xx","sigma_xy","sigma_yy","sigma_zz","vtkValidPointMask","Time","Point Coordinates:0","Point Coordinates:1","Point Coordinates:2"
0,0,0,0,0,0,0,0,0,0,0,0,0,1,0,1,0.025,0
0.00057217,1.0215e-18,1.5128e-12,1e-06,0,9.9416e-07,3.1522e-21,4.1359e-24,0,0.023013,4.9514e-17,0.00092026,0.00092026,1,0.001,1,0.025,0
0.0011443,-1.6144e-18,1.4289e-11,2e-06,0,1.9883e-06,-7.5795e-21,1.4889e-23,0,0.046025,-1.1908e-16,0.0018405,0.0018405,1,0.002,1,0.025,0
0.0017165,6.6069e-19,8.6909e-11,3e-06,0,2.9825e-06,-1.4244e-20,2.9779e-23,0,0.069038,-2.2381e-16,0.0027608,0.0027608,1,0.003,1,0.025,0
0.0022887,-2.5885e-18,3.0014e-10,4e-06,0,3.9766e-06,-1.02e-20,2.9779e-23,0,0.09205,-1.6022e-16,0.003681,0.003681,1,0.004,1,0.025,0
0.0028608,-2.5885e-18,7.7211e-10,5e-06,0,4.9708e-06,4.9201e-21,3.9705e-23,0,0.11506,7.7249e-17,0.0046013,0.0046013,1,0.005,1,0.025,0
0.003433,-1.1858e-18,1.6572e-09,6e-06,0,5.965e-06,-5.1285e-23,4.6322e-23,0,0.13807,-7.1828e-19,0.0055216,0.0055216,1,0.006,1,0.025,0
0.0040051,-4.6079e-18,3.1461e-09,7e-06,0,6.9591e-06,-1.6758e-20,5.294e-23,0,0.16109,-2.633e-16,0.0064418,0.0064418,1,0.007,1,0.025,0
0.0045773,-8.782e-18,5.466e-09,8e-06,0,7.9533e-06,-1.048e-20,7.2792e-23,0,0.1841,-1.6445e-16,0.0073621,0.0073621,1,0.008,1,0.025,0
0.0051495,1.8567e-18,8.8801e-09,9e-06,0,8.9475e-06,3.5585e-21,9.2644e-23,0,0.20711,5.5999e-17,0.0082824,0.0082824,1,0.009,1,0.025,0
0.0057217,-5.9631e-19,1.3688e-08,1e-05,0,9.9417e-06,-8.7681e-23,5.9557e-23,0,0.23013,-1.1113e-18,0.0092027,0.0092027,1,0.01,1,0.025,0
0.0062938,-1.667e-18,2.0226e-08,1.1e-05,0,1.0936e-05,1.3462e-20,7.9409e-23,0,0.25314,2.1185e-16,0.010123,0.010123,1,0.011,1,0.025,0
0.006866,-6.2342e-19,2.8866e-08,1.2e-05,0,1.193e-05,1.345e-20,1.0588e-22,0,0.27615,2.1137e-16,0.011043,0.011043,1,0.012,1,0.025,0
0.0074382,1.133e-17,4.0016e-08,1.3e-05,0,1.2924e-05,3.6905e-20,1.1911e-22,0,0.29916,5.8037e-16,0.011963,0.011963,1,0.013,1,0.025,0
0.0080104,-1.3119e-17,5.4122e-08,1.4e-05,0,1.3918e-05,-3.0865e-20,9.2644e-23,0,0.32218,-4.8483e-16,0.012884,0.012884,1,0.014,1,0.025,0
0.0085825,-7.752e-18,7.1665e-08,1.5e-05,0,1.4913e-05,-4.0787e-20,1.3235e-22,0,0.34519,-6.4055e-16,0.013804,0.013804,1,0.015,1,0.025,0
0.0091547,-3.2255e-18,9.3162e-08,1.6e-05,0,1.5907e-05,1.7033e-20,1.1911e-22,0,0.3682,2.6823e-16,0.014724,0.014724,1,0.016,1,0.025,0
0.0097269,-6.7221e-18,1.1917e-07,1.7e-05,0,1.6901e-05,9.7806e-21,1.4558e-22,0,0.39122,1.5407e-16,0.015645,0.015645,1,0.017,1,0.025,0
0.010299,7.1964e-18,1.5027e-07,1.8e-05,0,1.7895e-05,-2.7251e-20,1.9852e-22,0,0.41423,-4.2804e-16,0.016565,0.016565,1,0.018,1,0.025,0
0.010871,-1.7347e-18,1.871e-07,1.9e-05,0,1.8889e-05,1.5521e-19,1.3235e-22,0,0.43724,2.4395e-15,0.017485,0.017485,1,0.019,1,0.025,0
0.011443,-1.1953e-17,2.3031e-07,2e-05,0,1.9884e-05,1.968e-20,1.3235e-22,0,0.46026,3.0932e-16,0.018405,0.018405,1,0.02,1,0.025,0
0.012016,1.3281e-18,2.8061e-07,2.1e-05,0,2.0878e-05,-1.6874e-22,1.8529e-22,0,0.48327,-2.3852e-18,0.019326,0.019326,1,0.021,1,0.025,0
0.012588,-1.5992e-18,3.3874e-07,2.2e-05,0,2.1872e-05,-7.4446e-21,1.0588e-22,0,0.50628,-1.1682e-16,0.020246,0.020246,1,0.022,1,0.025,0
0.01316,-1.5423e-17,4.0545e-07,2.3e-05,0,2.2866e-05,4.6746e-20,1.8529e-22,0,0.5293,7.3482e-16,0.021166,0.021166,1,0.023,1,0.025,0
0.013732,-8.1857e-18,4.8157e-07,2.4e-05,0,2.386e-05,2.69e-20,2.3823e-22,0,0.55231,4.2344e-16,0.022087,0.022087,1,0.024,1,0.025,0
0.014304,2.6753e-17,5.6794e-07,2.5e-05,0,2.4855e-05,3.4169e-20,2.1176e-22,0,0.57532,5.3749e-16,0.023007,0.023007,1,0.025,1,0.025,0
0.014877,1.4203e-17,6.6542e-07,2.6e-05,0,2.5849e-05,-2.0081e-20,1.8529e-22,0,0.59834,-3.1453e-16,0.023927,0.023927,1,0.026,1,0.025,0
0.015449,-9.812e-18,7.7495e-07,2.7e-05,0,2.6843e-05,2.6864e-20,1.8529e-22,0,0.62135,4.2295e-16,0.024848,0.024848,1,0.027,1,0.025,0
0.016021,6.6407e-18,8.9747e-07,2.8e-05,0,2.7837e-05,-2.7347e-20,2.3823e-22,0,0.64436,-4.2886e-16,0.025768,0.025768,1,0.028,1,0.025,0
0.016593,-9.4868e-18,1.034e-06,2.9e-05,0,2.8831e-05,2.686e-20,2.3823e-22,0,0.66738,4.2289e-16,0.026688,0.026688,1,0.029,1,0.025,0
0.017165,-1.217e-17,1.1855e-06,3e-05,0,2.9826e-05,1.28e-19,2.9117e-22,0,0.69039,2.0128e-15,0.027609,0.027609,1,0.03,1,0.025,0
0.017738,-2.1332e-17,1.3531e-06,3.1e-05,0,3.082e-05,-8.1573e-20,2.3823e-22,0,0.71341,-1.2812e-15,0.028529,0.028529,1,0.031,1,0.025,0
0.01831,-7.9418e-18,1.5379e-06,3.2e-05,0,3.1814e-05,6.9814e-21,2.647e-22,0,0.73642,1.1135e-16,0.029449,0.029449,1,0.032,1,0.025,0
0.018882,-1.5775e-17,1.741e-06,3.3e-05,0,3.2809e-05,1.9535e-20,2.1176e-22,0,0.75943,3.09e-16,0.030369,0.030369,1,0.033,1,0.025,0
0.019454,-1.9624e-17,1.9635e-06,3.4e-05,0,3.3803e-05,-4.7242e-20,2.9117e-22,0,0.78245,-7.3921e-16,0.03129,0.03129,1,0.034,1,0.025,0
0.020026,5.7463e-18,2.2068e-06,3.5e-05,0,3.4797e-05,-2.7423e-20,3.1764e-22,0,0.80546,-4.2761e-16,0.03221,0.03221,1,0.035,1,0.025,0
0.020599,6.3995e-17,2.472e-06,3.6e-05,0,3.5791e-05,-1.8808e-19,3.7058e-22,0,0.82848,-2.952e-15,0.03313,0.03313,1,0.036,1,0.025,0
0.021171,1.2794e-17,2.7603e-06,3.7e-05,0,3.6786e-05,-5.4501e-20,3.1764e-22,0,0.85149,-8.5327e-16,0.034051,0.034051,1,0.037,1,0.025,0
0.021743,-7.4268e-18,3.0733e-06,3.8e-05,0,3.778e-05,-2.9408e-20,2.3823e-22,0,0.8745,-4.5775e-16,0.034971,0.034971,1,0.038,1,0.025,0
0.022315,6.1583e-17,3.4121e-06,3.9e-05,0,3.8774e-05,-1.4856e-20,2.647e-22,0,0.89752,-2.2996e-16,0.035891,0.035891,1,0.039,1,0.025,0
0.022887,-1.5884e-17,3.7781e-06,4e-05,0,3.9769e-05,-2.0266e-19,2.9117e-22,0,0.92053,-3.1802e-15,0.036812,0.036812,1,0.04,1,0.025,0
0.023459,7.0473e-19,4.1729e-06,4.1e-05,0,4.0763e-05,-5.4548e-20,3.4411e-22,0,0.94354,-8.5392e-16,0.037732,0.037732,1,0.041,1,0.025,0
0.024032,-2.0491e-17,4.5978e-06,4.2e-05,0,4.1757e-05,-2.0264e-19,3.1764e-22,0,0.96655,-3.181e-15,0.038652,0.038652,1,0.042,1,0.025,0
0.024604,1.4257e-17,5.0544e-06,4.3e-05,0,4.2752e-05,2.0194e-19,3.7058e-22,0,0.98957,3.1774e-15,0.039572,0.039572,1,0.043,1,0.025,0
0.025176,-2.5262e-17,5.5441e-06,4.4e-05,0,4.3746e-05,1.0806e-19,4.2352e-22,0,1.0126,1.7021e-15,0.040493,0.040493,1,0.044,1,0.025,0
0.025748,-3.464e-17,6.0686e-06,4.5e-05,0,4.4741e-05,5.384e-20,3.1764e-22,0,1.0356,8.4947e-16,0.041413,0.041413,1,0.045,1,0.025,0
0.02632,3.6917e-17,6.6295e-06,4.6e-05,0,4.5735e-05,1.6222e-19,3.1764e-22,0,1.0586,2.5528e-15,0.042333,0.042333,1,0.046,1,0.025,0
0.026892,4.2284e-18,7.2284e-06,4.7e-05,0,4.6729e-05,1.4115e-20,3.7058e-22,0,1.0816,2.2638e-16,0.043253,0.043253,1,0.047,1,0.025,0
0.027464,3.3556e-17,7.867e-06,4.8e-05,0,4.7724e-05,1.6221e-19,4.2352e-22,0,1.1046,2.5532e-15,0.044173,0.044173,1,0.048,1,0.025,0
0.028036,-6.9389e-18,8.547e-06,4.9e-05,0,4.8718e-05,5.3793e-20,4.2352e-22,0,1.1276,8.5034e-16,0.045094,0.045094,1,0.049,1,0.025,0
0.028609,-2.64e-17,9.2702e-06,5e-05,0,4.9713e-05,9.3478e-20,4.7646e-22,0,1.1506,1.4741e-15,0.046014,0.046014,1,0.05,1,0.025,0
0.029181,2.9219e-17,1.0038e-05,5.1e-05,0,5.0707e-05,-1.6305e-19,3.7058e-22,0,1.1736,-2.557e-15,0.046934,0.046934,1,0.051,1,0.025,0
0.029753,2.5099e-17,1.0853e-05,5.2e-05,0,5.1702e-05,-2.5636e-20,4.2352e-22,0,1.1967,-3.9595e-16,0.047854,0.047854,1,0.052,1,0.025,0
0.030325,5.5294e-18,1.1717e-05,5.3e-05,0,5.2696e-05,6.4355e-20,4.2352e-22,0,1.2197,1.0184e-15,0.048774,0.048774,1,0.053,1,0.025,0
0.030897,2.7539e-17,1.2631e-05,5.4e-05,0,5.3691e-05,-1.4859e-19,2.647e-22,0,1.2427,-2.328e-15,0.049694,0.049694,1,0.054,1,0.025,0
0.031469,8.1315e-19,1.3597e-05,5.5e-05,0,5.4685e-05,1.8729e-19,4.7646e-22,0,1.2657,2.9488e-15,0.050614,0.050614,1,0.055,1,0.025,0
0.03204,-2.4015e-17,1.4618e-05,5.6e-05,0,5.568e-05,1.2246e-19,4.7646e-22,0,1.2887,1.9307e-15,0.051534,0.051534,1,0.056,1,0.025,0
0.032612,-2.6238e-17,1.5696e-05,5.7e-05,0,5.6674e-05,5.374e-20,3.7058e-22,0,1.3117,8.5077e-16,0.052453,0.052453,1,0.057,1,0.025,0
0.033184,3.7459e-17,1.6832e-05,5.8e-05,0,5.7669e-05,9.3372e-20,5.8234e-22,0,1.3347,1.4739e-15,0.053373,0.053373,1,0.058,1,0.025,0
0.033756,1.6588e-17,1.8028e-05,5.9e-05,0,5.8664e-05,-5.4687e-20,4.7646e-22,0,1.3577,-8.5392e-16,0.054293,0.054293,1,0.059,1,0.025,0
0.034328,-1.0083e-17,1.9287e-05,6e-05,0,5.9658e-05,2.4148e-19,4.2352e-22,0,1.3807,3.8016e-15,0.055213,0.055213,1,0.06,1,0.025,0
0.034898,-2.331e-18,2.0547e-05,6.1e-05,0,6.065e-05,1.3976e-20,5.294e-22,0,1.4036,2.2616e-16,0.05613,0.05613,1,0.061,1,0.025,0
0.035471,-1.1926e-18,2.1936e-05,6.2e-05,0,6.1647e-05,-5.4766e-20,3.7058e-22,0,1.4267,-8.5218e-16,0.057052,0.057052,1,0.062,1,0.025,0
0.036043,-2.3744e-17,2.3393e-05,6.3e-05,0,6.2642e-05,3.9083e-20,4.7646e-22,0,1.4497,6.2233e-16,0.057971,0.057971,1,0.063,1,0.025,0
0.036614,4.7705e-18,2.4921e-05,6.4e-05,0,6.3637e-05,1.4752e-19,5.294e-22,0,1.4727,2.3258e-15,0.058891,0.058891,1,0.064,1,0.025,0
0.037186,-4.2609e-17,2.6523e-05,6.5e-05,0,6.4631e-05,1.6207e-19,4.2352e-22,0,1.4956,2.5539e-15,0.05981,0.05981,1,0.065,1,0.025,0
0.037757,5.562e-17,2.8202e-05,6.6e-05,0,6.5626e-05,6.8199e-20,5.294e-22,0,1.5186,1.0773e-15,0.060729,0.060729,1,0.066,1,0.025,0
0.038329,-1.6263e-18,2.9958e-05,6.7e-05,0,6.6621e-05,-1.7385e-19,5.294e-22,0,1.5416,-2.7235e-15,0.061648,0.061649,1,0.067,1,0.025,0
0.0389,-4.0929e-17,3.1796e-05,6.8e-05,0,6.7615e-05,9.3319e-20,4.7646e-22,0,1.5646,1.4747e-15,0.062567,0.062568,1,0.068,1,0.025,0
0.039471,3.5941e-17,3.3716e-05,6.9e-05,0,6.861e-05,9.328e-20,6.8821e-22,0,1.5876,1.4769e-15,0.063486,0.063487,1,0.069,1,0.025,0
0.040042,-2.0166e-17,3.5723e-05,7e-05,0,6.9605e-05,5.3628e-20,5.8234e-22,0,1.6106,8.5132e-16,0.064405,0.064405,1,0.07,1,0.025,0
0.040613,-8.7278e-18,3.7817e-05,7.1e-05,0,7.06e-05,7.8787e-20,5.8234e-22,0,1.6335,1.2466e-15,0.065324,0.065324,1,0.071,1,0.025,0
0.041184,-4.1417e-17,4.0003e-05,7.2e-05,0,7.1595e-05,1.0782e-19,7.4115e-22,0,1.6565,1.7018e-15,0.066242,0.066243,1,0.072,1,0.025,0
0.041753,6.3751e-17,4.2172e-05,7.3e-05,0,7.2585e-05,2.9561e-19,6.8821e-22,0,1.6794,4.6519e-15,0.067156,0.067157,1,0.073,1,0.025,0
0.042326,-5.2855e-17,4.4544e-05,7.4e-05,0,7.3584e-05,7.8774e-20,6.3527e-22,0,1.7024,1.2444e-15,0.068079,0.068079,1,0.074,1,0.025,0
0.042896,-3.4044e-17,4.7013e-05,7.5e-05,0,7.4579e-05,7.8721e-20,7.4115e-22,0,1.7254,1.2466e-15,0.068997,0.068998,1,0.075,1,0.025,0
0.043467,7.0907e-17,4.9583e-05,7.6e-05,0,7.5574e-05,3.246e-19,4.2352e-22,0,1.7483,5.1092e-15,0.069915,0.069916,1,0.076,1,0.025,0
0.044037,-7.1774e-17,5.2257e-05,7.7e-05,0,7.6569e-05,-2.969e-19,5.294e-22,0,1.7713,-4.6556e-15,0.070833,0.070834,1,0.077,1,0.025,0
0.044607,1.2327e-16,5.5038e-05,7.8e-05,0,7.7564e-05,-2.9712e-20,4.7646e-22,0,1.7943,-4.5732e-16,0.07175,0.071752,1,0.078,1,0.025,0
0.045177,-4.6621e-18,5.7929e-05,7.9e-05,0,7.8559e-05,-2.9712e-20,5.8234e-22,0,1.8172,-4.5667e-16,0.072668,0.072669,1,0.079,1,0.025,0
0.045747,3.8706e-17,6.0932e-05,8e-05,0,7.9553e-05,4.0394e-19,6.3527e-22,0,1.8401,6.3591e-15,0.073585,0.073586,1,0.08,1,0.025,0
0.046317,2.1901e-17,6.405e-05,8.1e-05,0,8.0548e-05,6.208e-19,5.8234e-22,0,1.8631,9.7682e-15,0.074502,0.074504,1,0.081,1,0.025,0
0.046887,5.2042e-18,6.7287e-05,8.2e-05,0,8.1543e-05,-6.8821e-22,7.4115e-22,0,1.886,1.9516e-18,0.075418,0.07542,1,0.082,1,0.025,0
0.047456,5.5294e-18,7.0645e-05,8.3e-05,0,8.2538e-05,-6.7498e-22,6.3527e-22,0,1.9089,2.3852e-18,0.076335,0.076337,1,0.083,1,0.025,0
0.048025,2.0166e-17,7.4127e-05,8.4e-05,0,8.3533e-05,2.6646e-19,7.4115e-22,0,1.9318,4.2e-15,0.077251,0.077253,1,0.084,1,0.025,0
0.048591,9.6277e-17,7.756e-05,8.5e-05,0,8.4521e-05,2.9556e-19,5.294e-22,0,1.9546,4.6551e-15,0.07816,0.078163,1,0.085,1,0.025,0
0.049163,2.331e-17,8.1298e-05,8.6e-05,0,8.5523e-05,-7.2792e-22,7.4115e-22,0,1.9777,2.1684e-18,0.079083,0.079086,1,0.086,1,0.025,0
0.049732,5.2259e-17,8.5164e-05,8.7e-05,0,8.6518e-05,2.9546e-19,6.3527e-22,0,2.0006,4.6553e-15,0.079999,0.080002,1,0.087,1,0.025,0
0.0503,-7.7629e-17,8.9167e-05,8.8e-05,0,8.7513e-05,1.8704e-19,6.3527e-22,0,2.0235,2.9531e-15,0.080914,0.080917,1,0.088,1,0.025,0
0.050868,-9.8554e-17,9.3309e-05,8.9e-05,0,8.8508e-05,2.6641e-19,6.3527e-22,0,2.0464,4.1982e-15,0.081829,0.081833,1,0.089,1,0.025,0
0.051436,-3.0791e-17,9.7594e-05,9e-05,0,8.9503e-05,4.8325e-19,7.4115e-22,0,2.0692,7.6052e-15,0.082743,0.082748,1,0.09,1,0.025,0
0.052004,-2.7972e-17,0.00010203,9.1e-05,0,9.0498e-05,6.4975e-19,7.4115e-22,0,2.0921,1.022e-14,0.083658,0.083662,1,0.091,1,0.025,0
0.052571,-1.1753e-16,0.00010661,9.2e-05,0,9.1493e-05,2.6635e-19,6.3527e-22,0,2.115,4.1982e-15,0.084571,0.084577,1,0.092,1,0.025,0
0.053138,-5.421e-17,0.00011134,9.3e-05,0,9.2489e-05,2.1603e-19,7.4115e-22,0,2.1378,3.4063e-15,0.085485,0.08549,1,0.093,1,0.025,0
0.053705,2.7756e-17,0.00011623,9.4e-05,0,9.3484e-05,-8.2056e-22,8.4703e-22,0,2.1607,1.7347e-18,0.086398,0.086404,1,0.094,1,0.025,0
0.054272,-6.6678e-17,0.00012127,9.5e-05,0,9.4479e-05,-4.0542e-19,8.4703e-22,0,2.1835,-6.3573e-15,0.08731,0.087317,1,0.095,1,0.025,0
0.054838,6.386e-17,0.00012649,9.6e-05,0,9.5474e-05,4.038e-19,7.4115e-22,0,2.2063,6.3567e-15,0.088222,0.088229,1,0.096,1,0.025,0
0.055398,-2.1684e-18,0.0001316,9.7e-05,0,9.6457e-05,-4.8487e-19,6.3527e-22,0,2.2289,-7.6059e-15,0.089123,0.089131,1,0.097,1,0.025,0
0.055969,-1.1926e-17,0.00013715,9.8e-05,0,9.7464e-05,-8.2056e-22,8.4703e-22,0,2.2519,-6.5052e-19,0.090046,0.090054,1,0.098,1,0.025,0
0.056534,-3.2201e-17,0.00014286,9.9e-05,0,9.8459e-05,1.3664e-19,9.5291e-22,0,2.2747,2.1556e-15,0.090957,0.090966,1,0.099,1,0.025,0
0.057099,-1.0018e-16,0.00014875,0.0001,0,9.9454e-05,2.9536e-19,8.4703e-22,0,2.2975,4.6514e-15,0.091867,0.091877,1,0.1,1,0.025,0
0.057663,-1.5287e-17,0.00015482,0.000101,0,0.00010045,-2.9911e-20,8.4703e-22,0,2.3203,-4.5927e-16,0.092777,0.092788,1,0.101,1,0.025,0
0.058227,-5.009e-17,0.00016107,0.000102,0,0.00010144,7.8523e-20,7.4115e-22,0,2.3431,1.2442e-15,0.093687,0.093698,1,0.102,1,0.025,0
0.058791,-3.8489e-17,0.00016751,0.000103,0,0.00010244,4.8302e-19,7.4115e-22,0,2.3658,7.5994e-15,0.094596,0.094608,1,0.103,1,0.025,0
0.059354,-1.095e-17,0.00017414,0.000104,0,0.00010343,1.365e-19,7.4115e-22,0,2.3886,2.1556e-15,0.095504,0.095517,1,0.104,1,0.025,0
0.059916,5.9089e-17,0.00018097,0.000105,0,0.00010443,2.9522e-19,7.4115e-22,0,2.4113,4.6501e-15,0.096411,0.096426,1,0.105,1,0.025,0
0.060478,-8.2399e-18,0.00018799,0.000106,0,0.00010542,-3.003e-20,9.5291e-22,0,2.434,-4.5905e-16,0.097318,0.097333,1,0.106,1,0.025,0
0.06104,-1.4528e-17,0.00019522,0.000107,0,0.00010642,-1.675e-19,7.4115e-22,0,2.4567,-2.6153e-15,0.098224,0.09824,1,0.107,1,0.025,0
0.061601,1.0679e-16,0.00020266,0.000108,0,0.00010741,-4.3466e-19,8.4703e-22,0,2.4793,-6.8103e-15,0.09913,0.099147,1,0.108,1,0.025,0
0.062153,-5.2801e-17,0.00020992,0.000109,0,0.00010839,-1.5969e-19,8.4703e-22,0,2.5016,-2.4913e-15,0.10002,0.10004,1,0.109,1,0.025,0
0.062721,-8.5218e-17,0.00021779,0.00011,0,0.0001094,-2.4688e-19,8.4703e-22,0,2.5247,-3.8608e-15,0.10094,0.10096,1,0.11,1,0.025,0
0.06328,-7.4593e-17,0.00022586,0.000111,0,0.0001104,-1.8876e-19,8.4703e-22,0,2.5473,-2.9471e-15,0.10184,0.10186,1,0.111,1,0.025,0
0.063839,-1.2371e-16,0.00023415,0.000112,0,0.00011139,-1.094e-19,1.0588e-21,0,2.5699,-1.6983e-15,0.10275,0.10277,1,0.112,1,0.025,0
0.064397,3.0141e-17,0.00024267,0.000113,0,0.00011239,5.1203e-19,1.0588e-21,0,2.5925,8.0589e-15,0.10365,0.10367,1,0.113,1,0.025,0
0.064955,-2.2768e-17,0.00025141,0.000114,0,0.00011338,5.9141e-19,8.4703e-22,0,2.6151,9.3031e-15,0.10455,0.10458,1,0.114,1,0.025,0
0.065511,-5.1933e-17,0.00026039,0.000115,0,0.00011438,7.8298e-20,7.4115e-22,0,2.6376,1.2444e-15,0.10545,0.10548,1,0.115,1,0.025,0
0.066067,-1.1601e-17,0.00026961,0.000116,0,0.00011537,5.1214e-19,6.3527e-22,0,2.6602,8.0567e-15,0.10635,0.10638,1,0.116,1,0.025,0
0.066623,1.8865e-17,0.00027908,0.000117,0,0.00011637,4.8297e-19,9.5291e-22,0,2.6827,7.5972e-15,0.10725,0.10728,1,0.117,1,0.025,0
0.067177,-8.576e-17,0.00028879,0.000118,0,0.00011736,-3.2627e-19,8.4703e-22,0,2.7052,-5.1144e-15,0.10814,0.10818,1,0.118,1,0.025,0
0.067731,-1.1254e-16,0.00029875,0.000119,0,0.00011836,2.6607e-19,9.5291e-22,0,2.7276,4.1928e-15,0.10904,0.10908,1,0.119,1,0.025,0
0.068273,-3.502e-17,0.00030845,0.00012,0,0.00011933,2.1578e-19,7.4115e-22,0,2.7495,3.4027e-15,0.10991,0.10995,1,0.12,1,0.025,0
0.068836,4.3368e-19,0.00031896,0.000121,0,0.00012035,-1.675e-19,1.2705e-21,0,2.7725,-2.6177e-15,0.11083,0.11087,1,0.121,1,0.025,0
0.069387,-4.4452e-18,0.00032968,0.000122,0,0.00012134,-9.7938e-22,1.0588e-21,0,2.7949,-3.4694e-18,0.11172,0.11177,1,0.122,1,0.025,0
0.069937,-3.6212e-17,0.00034068,0.000123,0,0.00012234,7.8377e-20,8.4703e-22,0,2.8173,1.2416e-15,0.11262,0.11266,1,0.123,1,0.025,0
0.070487,-8.0123e-17,0.00035195,0.000124,0,0.00012333,-8.3938e-19,7.4115e-22,0,2.8397,-1.3167e-14,0.11351,0.11356,1,0.124,1,0.025,0
0.071035,6.5919e-17,0.0003635,0.000125,0,0.00012432,4.6169e-19,9.5291e-22,0,2.862,7.2659e-15,0.1144,0.11445,1,0.125,1,0.025,0
0.071583,8.6845e-17,0.00037533,0.000126,0,0.00012532,7.2877e-19,7.4115e-22,0,2.8843,1.1457e-14,0.11529,0.11534,1,0.126,1,0.025,0
0.072129,-8.9989e-18,0.00038745,0.000127,0,0.00012631,-2.9734e-19,9.5291e-22,0,2.9066,-4.6586e-15,0.11617,0.11623,1,0.127,1,0.025,0
0.072675,4.2934e-17,0.00039986,0.000128,0,0.00012731,-8.0574e-20,9.5291e-22,0,2.9288,-1.2486e-15,0.11706,0.11712,1,0.128,1,0.025,0
0.073219,-8.6302e-17,0.00041256,0.000129,0,0.0001283,1.8656e-19,9.5291e-22,0,2.951,2.9456e-15,0.11794,0.11801,1,0.129,1,0.025,0
0.073748,-1.1709e-17,0.0004249,0.00013,0,0.00012926,6.204e-19,1.0588e-21,0,2.9725,9.7552e-15,0.1188,0.11886,1,0.13,1,0.025,0
0.074304,-6.7654e-17,0.00043827,0.000131,0,0.00013029,-4.0578e-19,1.1647e-21,0,2.9954,-6.3591e-15,0.11971,0.11978,1,0.131,1,0.025,0
0.074845,-4.0874e-17,0.00045187,0.000132,0,0.00013128,1.3635e-19,1.1647e-21,0,3.0175,2.1537e-15,0.12059,0.12067,1,0.132,1,0.025,0
0.075385,-2.3636e-17,0.00046579,0.000133,0,0.00013228,-3.0281e-20,1.3764e-21,0,3.0396,-4.6404e-16,0.12147,0.12155,1,0.133,1,0.025,0
0.075923,1.8431e-18,0.00048003,0.000134,0,0.00013327,5.1185e-19,1.1647e-21,0,3.0617,8.0504e-15,0.12235,0.12243,1,0.134,1,0.025,0
0.076461,5.1716e-17,0.0004946,0.000135,0,0.00013426,-5.1431e-20,1.0588e-21,0,3.0837,-8.0231e-16,0.12323,0.12331,1,0.135,1,0.025,0
0.076996,1.5721e-17,0.00050949,0.000136,0,0.00013526,-5.9239e-20,1.0588e-21,0,3.1057,-9.2374e-16,0.1241,0.12419,1,0.136,1,0.025,0
0.077531,-3.9357e-17,0.00052472,0.000137,0,0.00013625,5.6227e-19,1.1647e-21,0,3.1276,8.8323e-15,0.12497,0.12507,1,0.137,1,0.025,0
0.078046,-5.8872e-17,0.00053948,0.000138,0,0.0001372,-5.4329e-19,1.3764e-21,0,3.1486,-8.5236e-15,0.12581,0.12591,1,0.138,1,0.025,0
0.078595,3.8489e-17,0.00055547,0.000139,0,0.00013824,9.7462e-19,1.0588e-21,0,3.1714,1.5307e-14,0.12671,0.12682,1,0.139,1,0.025,0
0.079126,-1.3965e-16,0.00057172,0.00014,0,0.00013923,-5.4332e-19,1.2705e-21,0,3.1933,-8.5296e-15,0.12758,0.12769,1,0.14,1,0.025,0
0.079654,-4.6621e-18,0.00058832,0.000141,0,0.00014022,-1.2441e-21,1.4823e-21,0,3.2151,-1.4745e-17,0.12845,0.12857,1,0.141,1,0.025,0
0.080181,-8.6302e-17,0.00060528,0.000142,0,0.00014121,2.157e-19,1.3764e-21,0,3.2369,3.3901e-15,0.12931,0.12944,1,0.142,1,0.025,0
0.080707,-5.7788e-17,0.0006226,0.000143,0,0.00014221,2.737e-19,1.1647e-21,0,3.2586,4.2982e-15,0.13018,0.13031,1,0.143,1,0.025,0
0.08123,-7.752e-17,0.00064029,0.000144,0,0.0001432,2.1557e-19,1.1647e-21,0,3.2803,3.3823e-15,0.13104,0.13117,1,0.144,1,0.025,0
0.081731,1.1015e-16,0.0006574,0.000145,0,0.00014414,1.1411e-18,1.1647e-21,0,3.3009,1.7902e-14,0.13185,0.132,1,0.145,1,0.025,0
0.082251,5.6379e-18,0.00067495,0.000146,0,0.00014513,-1.2441e-21,1.4823e-21,0,3.3226,-3.6429e-17,0.13271,0.13286,1,0.146,1,0.025,0
0.082791,-2.0275e-17,0.00069389,0.000147,0,0.00014617,-1.2705e-21,1.2705e-21,0,3.3453,-3.296e-17,0.13361,0.13377,1,0.147,1,0.025,0
0.083308,9.5843e-17,0.00071308,0.000148,0,0.00014716,5.9123e-19,8.4703e-22,0,3.3669,9.2656e-15,0.13447,0.13463,1,0.148,1,0.025,0
0.083823,6.0715e-17,0.00073266,0.000149,0,0.00014815,-2.1811e-19,1.2705e-21,0,3.3885,-3.4404e-15,0.13532,0.1355,1,0.149,1,0.025,0
0.084336,-5.421e-17,0.00075264,0.00015,0,0.00014914,2.1544e-19,1.4823e-21,0,3.41,3.3649e-15,0.13617,0.13636,1,0.15,1,0.025,0
0.084847,-1.3292e-16,0.00077303,0.000151,0,0.00015013,-8.6863e-19,1.0588e-21,0,3.4314,-1.3649e-14,0.13702,0.13721,1,0.151,1,0.025,0
0.085356,-1.713e-17,0.00079383,0.000152,0,0.00015112,2.1552e-19,9.5291e-22,0,3.4528,3.3697e-15,0.13786,0.13807,1,0.152,1,0.025,0
0.085863,2.8189e-18,0.00081505,0.000153,0,0.00015211,-1.297e-21,9.5291e-22,0,3.4741,-3.0791e-17,0.1387,0.13892,1,0.153,1,0.025,0
0.086367,-1.0322e-16,0.00083669,0.000154,0,0.0001531,-9.2676e-19,1.0588e-21,0,3.4953,-1.455e-14,0.13954,0.13977,1,0.154,1,0.025,0
0.086844,2.2573e-16,0.00085756,0.000155,0,0.00015403,1.1835e-18,1.0588e-21,0,3.5153,1.8566e-14,0.14033,0.14057,1,0.155,1,0.025,0
0.087344,-5.8764e-17,0.00087898,0.000156,0,0.00015501,-7.5254e-19,9.5291e-22,0,3.5366,-1.1818e-14,0.14117,0.14142,1,0.156,1,0.025,0
0.087868,1.2815e-16,0.0009021,0.000157,0,0.00015606,5.9107e-19,1.0588e-21,0,3.5591,9.2678e-15,0.14206,0.14232,1,0.157,1,0.025,0
0.088364,8.6302e-17,0.00092545,0.000158,0,0.00015704,-1.6006e-19,1.1647e-21,0,3.5803,-2.5219e-15,0.14289,0.14316,1,0.158,1,0.025,0
0.088857,-8.1966e-17,0.00094924,0.000159,0,0.00015803,1.5742e-19,1.0588e-21,0,3.6014,2.4572e-15,0.14372,0.14401,1,0.159,1,0.025,0
0.089348,1.3487e-16,0.0009735,0.00016,0,0.00015902,5.9107e-19,1.2705e-21,0,3.6225,9.2556e-15,0.14455,0.14485,1,0.16,1,0.025,0
0.089836,-3.1876e-17,0.00099822,0.000161,0,0.00016,-5.9425e-20,1.1647e-21,0,3.6434,-9.5583e-16,0.14537,0.14569,1,0.161,1,0.025,0
0.090322,1.5613e-17,0.0010234,0.000162,0,0.00016099,-2.183e-19,1.4823e-21,0,3.6643,-3.4473e-15,0.14619,0.14652,1,0.162,1,0.025,0
0.090775,-1.5764e-16,0.0010476,0.000163,0,0.0001619,-5.9372e-19,1.2705e-21,0,3.6837,-9.3367e-15,0.14695,0.1473,1,0.163,1,0.025,0
0.091218,7.8063e-17,0.0010711,0.000164,0,0.0001628,-9.693e-19,1.2705e-21,0,3.7027,-1.5218e-14,0.14769,0.14805,1,0.164,1,0.025,0
0.091696,-6.8088e-17,0.0010952,0.000165,0,0.00016378,1.1835e-18,1.2705e-21,0,3.7235,1.856e-14,0.14851,0.14888,1,0.165,1,0.025,0
0.092239,9.1073e-18,0.0011229,0.000166,0,0.0001649,-1.3235e-21,1.4823e-21,0,3.7476,-3.8164e-17,0.14946,0.14985,1,0.166,1,0.025,0
0.092712,1.7347e-17,0.0011504,0.000167,0,0.00016588,5.6778e-20,1.6941e-21,0,3.7683,8.7213e-16,0.15027,0.15068,1,0.167,1,0.025,0
0.093182,2.0687e-16,0.0011784,0.000168,0,0.00016686,-5.9425e-20,1.6941e-21,0,3.7889,-9.4759e-16,0.15107,0.1515,1,0.168,1,0.025,0
0.093649,-4.8355e-17,0.0012069,0.000169,0,0.00016784,2.7359e-19,1.0588e-21,0,3.8095,4.2774e-15,0.15188,0.15232,1,0.169,1,0.025,0
0.094113,-8.4785e-17,0.0012359,0.00017,0,0.00016881,-1.4558e-21,1.4823e-21,0,3.8299,-3.6863e-17,0.15268,0.15314,1,0.17,1,0.025,0
0.094574,8.3267e-17,0.0012654,0.000171,0,0.00016979,6.4914e-19,1.4823e-21,0,3.8503,1.0161e-14,0.15347,0.15395,1,0.171,1,0.025,0
0.095032,6.4402e-17,0.0012955,0.000172,0,0.00017077,8.0788e-19,1.4823e-21,0,3.8705,1.264e-14,0.15426,0.15476,1,0.172,1,0.025,0
0.095486,-8.0448e-17,0.0013261,0.000173,0,0.00017174,-5.9451e-20,1.6941e-21,0,3.8907,-9.7405e-16,0.15505,0.15557,1,0.173,1,0.025,0
0.0959,-6.2884e-18,0.0013554,0.000174,0,0.00017263,-9.6946e-19,1.6941e-21,0,3.909,-1.5237e-14,0.15576,0.1563,1,0.174,1,0.025,0
0.096302,-8.8905e-18,0.0013839,0.000175,0,0.0001735,2.1536e-19,1.2705e-21,0,3.9268,3.3502e-15,0.15645,0.15701,1,0.175,1,0.025,0
0.096746,-4.6187e-17,0.0014131,0.000176,0,0.00017446,-8.6884e-19,1.0588e-21,0,3.9468,-1.3653e-14,0.15723,0.15781,1,0.176,1,0.025,0
0.097187,-7.0256e-17,0.0014427,0.000177,0,0.00017542,-1.0276e-18,1.6941e-21,0,3.9668,-1.613e-14,0.158,0.15861,1,0.177,1,0.025,0
0.097709,-5.833e-17,0.0014769,0.000178,0,0.00017656,2.1541e-19,1.0588e-21,0,3.9909,3.3671e-15,0.15895,0.15957,1,0.178,1,0.025,0
0.098145,-1.7672e-16,0.0015106,0.000179,0,0.00017752,-6.52e-19,1.2705e-21,0,4.0108,-1.023e-14,0.15972,0.16036,1,0.179,1,0.025,0
0.098576,1.7781e-17,0.0015449,0.00018,0,0.00017848,8.0775e-19,1.2705e-21,0,4.0305,1.2665e-14,0.16048,0.16115,1,0.18,1,0.025,0
0.099004,3.4261e-17,0.0015798,0.000181,0,0.00017944,-1.602e-19,1.2705e-21,0,4.0502,-2.518e-15,0.16125,0.16194,1,0.181,1,0.025,0
0.099428,1.0365e-16,0.0016152,0.000182,0,0.0001804,-5.9398e-19,1.2705e-21,0,4.0697,-9.3085e-15,0.162,0.16272,1,0.182,1,0.025,0
0.099798,-1.2729e-16,0.0016491,0.000183,0,0.00018125,-1.4032e-18,1.2705e-21,0,4.0865,-2.1983e-14,0.16265,0.16339,1,0.183,1,0.025,0
0.10017,-6.3317e-17,0.0016821,0.000184,0,0.0001821,2.7343e-19,1.4823e-21,0,4.1035,4.3117e-15,0.16331,0.16407,1,0.184,1,0.025,0
0.10058,-7.5894e-17,0.0017159,0.000185,0,0.00018304,1.0246e-18,1.2705e-21,0,4.1226,1.6081e-14,0.16405,0.16483,1,0.185,1,0.025,0
0.10099,-6.5703e-17,0.0017501,0.000186,0,0.00018398,-4.7778e-19,1.2705e-21,0,4.1416,-7.4819e-15,0.16479,0.16559,1,0.186,1,0.025,0
0.1014,-9.1073e-17,0.0017849,0.000187,0,0.00018491,2.1536e-19,1.6941e-21,0,4.1606,3.3827e-15,0.16552,0.16635,1,0.187,1,0.025,0
0.1018,5.5945e-17,0.0018202,0.000188,0,0.00018584,-1.5352e-21,1.4823e-21,0,4.1795,-2.2551e-17,0.16625,0.1671,1,0.188,1,0.025,0
0.10224,-8.3917e-17,0.0018583,0.000189,0,0.00018686,-5.3585e-19,1.6941e-21,0,4.2004,-8.3961e-15,0.16707,0.16794,1,0.189,1,0.025,0
0.10263,-5.7029e-17,0.0018965,0.00019,0,0.00018778,-1.6035e-19,1.4823e-21,0,4.2189,-2.5049e-15,0.16779,0.16868,1,0.19,1,0.025,0
0.10302,-2.1337e-16,0.0019352,0.000191,0,0.0001887,-3.7719e-19,1.4823e-21,0,4.2371,-5.8981e-15,0.1685,0.1694,1,0.191,1,0.025,0
0.10341,-5.2042e-18,0.0019746,0.000192,0,0.00018962,1.2995e-18,1.2705e-21,0,4.2551,2.0367e-14,0.1692,0.17012,1,0.192,1,0.025,0
0.10375,-1.6371e-16,0.0020122,0.000193,0,0.00019042,-6.5211e-19,1.6941e-21,0,4.2706,-1.023e-14,0.1698,0.17074,1,0.193,1,0.025,0
0.10412,-1.8041e-16,0.0020509,0.000194,0,0.00019132,-6.5216e-19,1.4823e-21,0,4.2884,-1.0219e-14,0.1705,0.17145,1,0.194,1,0.025,0
0.1045,-1.6328e-16,0.00209,0.000195,0,0.00019222,3.7386e-19,1.6941e-21,0,4.3061,5.8634e-15,0.17119,0.17216,1,0.195,1,0.025,0
0.10487,-8.5435e-17,0.0021298,0.000196,0,0.00019311,1.0826e-18,1.6941e-21,0,4.3237,1.6957e-14,0.17187,0.17286,1,0.196,1,0.025,0
0.10523,-4.7054e-17,0.00217,0.000197,0,0.000194,2.7333e-19,1.4823e-21,0,4.3412,4.264e-15,0.17256,0.17356,1,0.197,1,0.025,0
0.10559,1.0473e-16,0.0022109,0.000198,0,0.00019488,6.4888e-19,1.4823e-21,0,4.3586,1.0141e-14,0.17324,0.17426,1,0.198,1,0.025,0
0.10595,4.0766e-17,0.0022523,0.000199,0,0.00019575,8.0765e-19,1.6941e-21,0,4.376,1.2617e-14,0.17392,0.17495,1,0.199,1,0.025,0
0.1063,7.0473e-17,0.0022944,0.0002,0,0.00019661,8.0759e-19,1.2705e-21,0,4.3932,1.2602e-14,0.17459,0.17564,1,0.2,1,0.025,0
0.10665,-1.9863e-16,0.002337,0.000201,0,0.00019747,-1.3452e-18,1.4823e-21,0,4.4104,-2.1128e-14,0.17526,0.17633,1,0.201,1,0.025,0
0.10699,-2.8189e-17,0.0023801,0.000202,0,0.00019833,-7.5291e-19,1.2705e-21,0,4.4274,-1.1827e-14,0.17592,0.17701,1,0.202,1,0.025,0
0.10733,9.3458e-17,0.0024239,0.000203,0,0.00019917,-1.6035e-19,1.4823e-21,0,4.4444,-2.5414e-15,0.17658,0.17768,1,0.203,1,0.025,0
0.10767,-9.8229e-17,0.0024683,0.000204,0,0.00020001,2.7338e-19,1.6941e-21,0,4.4612,4.2527e-15,0.17724,0.17836,1,0.204,1,0.025,0
0.108,1.4095e-17,0.0025133,0.000205,0,0.00020085,1.0245e-18,1.4823e-21,0,4.478,1.6011e-14,0.17789,0.17903,1,0.205,1,0.025,0
0.10832,-1.3292e-16,0.0025589,0.000206,0,0.00020167,1.5702e-19,1.6941e-21,0,4.4946,2.413e-15,0.17854,0.17969,1,0.206,1,0.025,0
0.10864,2.1684e-18,0.0026051,0.000207,0,0.00020249,-1.6941e-21,1.6941e-21,0,4.5111,-7.2858e-17,0.17918,0.18035,1,0.207,1,0.025,0
0.10895,-2.6671e-17,0.002652,0.000208,0,0.0002033,-1.6941e-21,1.9058e-21,0,4.5275,-7.3726e-17,0.17982,0.18101,1,0.208,1,0.025,0
0.10926,-1.0408e-17,0.0026995,0.000209,0,0.0002041,-1.6941e-21,2.1176e-21,0,4.5438,-7.1991e-17,0.18045,0.18166,1,0.209,1,0.025,0
0.10957,-7.5894e-18,0.0027476,0.00021,0,0.0002049,-8.1093e-19,1.4823e-21,0,4.56,-1.2744e-14,0.18108,0.1823,1,0.21,1,0.025,0
0.10987,-2.3202e-17,0.0027963,0.000211,0,0.00020568,5.6539e-20,1.6941e-21,0,4.576,8.4047e-16,0.1817,0.18294,1,0.211,1,0.025,0
0.11016,-9.8662e-17,0.0028457,0.000212,0,0.00020646,-8.1082e-19,1.2705e-21,0,4.5919,-1.2732e-14,0.18232,0.18358,1,0.212,1,0.025,0
0.11045,-5.8547e-17,0.0028958,0.000213,0,0.00020723,-5.3596e-19,1.6941e-21,0,4.6077,-8.4221e-15,0.18294,0.18421,1,0.213,1,0.025,0
0.11073,9.4326e-17,0.0029465,0.000214,0,0.00020799,9.239e-19,1.4823e-21,0,4.6233,1.4428e-14,0.18354,0.18483,1,0.214,1,0.025,0
0.11101,-7.7846e-17,0.0029979,0.000215,0,0.00020874,2.1525e-19,1.9058e-21,0,4.6388,3.3194e-15,0.18414,0.18545,1,0.215,1,0.025,0
0.11128,8.6086e-17,0.0030499,0.000216,0,0.00020949,-6.5211e-19,1.4823e-21,0,4.6541,-1.0238e-14,0.18474,0.18606,1,0.216,1,0.025,0
0.11154,-8.8471e-17,0.0031026,0.000217,0,0.00021022,2.1515e-19,1.9058e-21,0,4.6693,3.3445e-15,0.18533,0.18667,1,0.217,1,0.025,0
0.1118,5.3343e-17,0.003156,0.000218,0,0.00021095,-4.3527e-19,1.4823e-21,0,4.6844,-6.8331e-15,0.18591,0.18727,1,0.218,1,0.025,0
0.11206,-1.507e-16,0.0032101,0.000219,0,0.00021166,-5.9419e-19,1.6941e-21,0,4.6993,-9.312e-15,0.18649,0.18787,1,0.219,1,0.025,0
0.1123,-8.4134e-17,0.0032649,0.00022,0,0.00021237,1.5702e-19,1.4823e-21,0,4.714,2.4581e-15,0.18706,0.18846,1,0.22,1,0.025,0
0.11255,1.5396e-17,0.0033204,0.000221,0,0.00021306,1.2993e-18,1.4823e-21,0,4.7286,2.0312e-14,0.18763,0.18904,1,0.221,1,0.025,0
0.11278,-1.4311e-17,0.0033766,0.000222,0,0.00021375,-1.5882e-21,2.1176e-21,0,4.743,-6.245e-17,0.18819,0.18961,1,0.222,1,0.025,0
0.11301,-1.5114e-16,0.0034335,0.000223,0,0.00021442,4.3199e-19,2.1176e-21,0,4.7572,6.7221e-15,0.18874,0.19018,1,0.223,1,0.025,0
0.11323,-1.7564e-17,0.0034911,0.000224,0,0.00021509,-5.9716e-20,1.9058e-21,0,4.7713,-9.7491e-16,0.18928,0.19074,1,0.224,1,0.025,0
0.11345,-1.9798e-16,0.0035495,0.000225,0,0.00021574,-1.4613e-18,2.1176e-21,0,4.7851,-2.2902e-14,0.18982,0.1913,1,0.225,1,0.025,0
0.11365,-9.4542e-17,0.0036086,0.000226,0,0.00021639,1.1251e-18,1.9058e-21,0,4.7988,1.758e-14,0.19035,0.19184,1,0.226,1,0.025,0
0.11386,-1.8215e-16,0.0036685,0.000227,0,0.00021702,-4.3527e-19,1.2705e-21,0,4.8123,-6.847e-15,0.19087,0.19238,1,0.227,1,0.025,0
0.11405,-2.2985e-17,0.0037291,0.000228,0,0.00021764,6.9139e-19,1.6941e-21,0,4.8256,1.0788e-14,0.19138,0.19291,1,0.228,1,0.025,0
0.11424,3.296e-17,0.0037904,0.000229,0,0.00021825,-2.7656e-19,1.6941e-21,0,4.8387,-4.3611e-15,0.19189,0.19344,1,0.229,1,0.025,0
0.11431,-8.9121e-17,0.0038491,0.00023,0,0.00021871,1.2413e-18,1.6941e-21,0,4.8485,1.937e-14,0.19226,0.19383,1,0.23,1,0.025,0
0.11438,-2.9057e-17,0.0039067,0.000231,0,0.00021915,-1.1784e-19,1.4823e-21,0,4.8577,-1.8943e-15,0.19261,0.1942,1,0.231,1,0.025,0
0.11454,-1.0647e-16,0.0039654,0.000232,0,0.00021971,3.7397e-19,1.9058e-21,0,4.8697,5.787e-15,0.19307,0.19468,1,0.232,1,0.025,0
0.11469,-1.4333e-16,0.0040248,0.000233,0,0.00022025,-6.5222e-19,1.6941e-21,0,4.8814,-1.0259e-14,0.19351,0.19514,1,0.233,1,0.025,0
0.11483,1.2143e-16,0.004085,0.000234,0,0.00022078,1.892e-18,1.4823e-21,0,4.8926,2.9502e-14,0.19395,0.19559,1,0.234,1,0.025,0
0.11496,7.1557e-17,0.0041459,0.000235,0,0.00022129,-1.603e-19,1.4823e-21,0,4.9035,-2.609e-15,0.19436,0.19602,1,0.235,1,0.025,0
0.11509,1.0842e-17,0.0042076,0.000236,0,0.00022179,8.0775e-19,2.1176e-21,0,4.914,1.2535e-14,0.19476,0.19644,1,0.236,1,0.025,0
0.1152,7.2208e-17,0.0042701,0.000237,0,0.00022227,-4.3537e-19,1.2705e-21,0,4.924,-6.899e-15,0.19514,0.19684,1,0.237,1,0.025,0
0.1153,1.403e-16,0.0043333,0.000238,0,0.00022273,3.7375e-19,1.6941e-21,0,4.9337,5.7662e-15,0.19551,0.19723,1,0.238,1,0.025,0
0.1154,7.5894e-18,0.0043974,0.000239,0,0.00022318,-9.6985e-19,1.6941e-21,0,4.9429,-1.5245e-14,0.19586,0.1976,1,0.239,1,0.025,0
0.11549,-2.3636e-17,0.0044622,0.00024,0,0.00022361,9.6646e-19,1.4823e-21,0,4.9518,1.5021e-14,0.19619,0.19795,1,0.24,1,0.025,0
0.11556,2.1684e-18,0.0045278,0.000241,0,0.00022402,1.0245e-18,1.0588e-21,0,4.9602,1.5906e-14,0.19651,0.19828,1,0.241,1,0.025,0
0.11563,-7.9147e-17,0.0045943,0.000242,0,0.00022441,-7.5259e-19,1.6941e-21,0,4.9682,-1.1874e-14,0.19681,0.1986,1,0.242,1,0.025,0
0.11568,-1.4138e-16,0.0046616,0.000243,0,0.00022479,1.4001e-18,1.2705e-21,0,4.9757,2.1766e-14,0.19709,0.1989,1,0.243,1,0.025,0
0.11573,2.3202e-17,0.0047297,0.000244,0,0.00022515,-1.9058e-21,1.4823e-21,0,4.9829,-1.5959e-16,0.19736,0.19919,1,0.244,1,0.025,0
0.11577,3.6429e-17,0.0047987,0.000245,0,0.00022549,-2.7634e-19,1.4823e-21,0,4.9895,-4.4461e-15,0.19761,0.19946,1,0.245,1,0.025,0
0.11579,-5.1174e-17,0.0048685,0.000246,0,0.00022581,6.3316e-19,1.9058e-21,0,4.9958,9.7856e-15,0.19784,0.19971,1,0.246,1,0.025,0
0.11581,2.6021e-18,0.0049392,0.000247,0,0.00022611,1.0245e-18,1.9058e-21,0,5.0016,1.5888e-14,0.19805,0.19994,1,0.247,1,0.025,0
0.11581,-1.2143e-17,0.0050108,0.000248,0,0.00022639,-1.6941e-21,2.5411e-21,0,5.007,-1.6306e-16,0.19824,0.20015,1,0.248,1,0.025,0
0.11581,1.5547e-16,0.0050833,0.000249,0,0.00022666,-5.9377e-19,1.6941e-21,0,5.0119,-9.3987e-15,0.19842,0.20035,1,0.249,1,0.025,0
0.11579,3.2027e-16,0.0051567,0.00025,0,0.00022691,2.7338e-19,1.9058e-21,0,5.0163,4.146e-15,0.19858,0.20052,1,0.25,1,0.025,0
0.11577,-2.0383e-17,0.005231,0.000251,0,0.00022713,9.6668e-19,2.1176e-21,0,5.0203,1.496e-14,0.19872,0.20068,1,0.251,1,0.025,0
0.11573,1.7998e-17,0.0053063,0.000252,0,0.00022734,8.0807e-19,2.1176e-21,0,5.0238,1.2469e-14,0.19884,0.20082,1,0.252,1,0.025,0
0.11568,3.2526e-18,0.0053825,0.000253,0,0.00022753,8.0765e-19,1.6941e-21,0,5.0269,1.2459e-14,0.19894,0.20094,1,0.253,1,0.025,0
0.11563,8.3484e-17,0.0054596,0.000254,0,0.0002277,-4.4046e-20,1.9058e-21,0,5.0295,-8.6042e-16,0.19902,0.20105,1,0.254,1,0.025,0
0.11556,-1.2945e-16,0.0055378,0.000255,0,0.00022784,1.5712e-19,2.1176e-21,0,5.0316,2.2933e-15,0.19909,0.20113,1,0.255,1,0.025,0
0.11548,6.7221e-18,0.0056169,0.000256,0,0.00022797,7.4984e-19,1.4823e-21,0,5.0332,1.1546e-14,0.19913,0.20119,1,0.256,1,0.025,0
0.11539,2.4416e-16,0.005697,0.000257,0,0.00022808,7.4962e-19,2.3293e-21,0,5.0343,1.155e-14,0.19916,0.20124,1,0.257,1,0.025,0
0.11529,1.5764e-16,0.0057782,0.000258,0,0.00022817,-1.5988e-19,1.6941e-21,0,5.035,-2.6819e-15,0.19916,0.20126,1,0.258,1,0.025,0
0.11517,8.5435e-17,0.0058604,0.000259,0,0.00022823,-4.3516e-19,2.1176e-21,0,5.0351,-6.9562e-15,0.19915,0.20127,1,0.259,1,0.025,0
0.11505,1.0625e-17,0.0059436,0.00026,0,0.00022828,1.0827e-18,2.7529e-21,0,5.0348,1.6723e-14,0.19911,0.20125,1,0.26,1,0.025,0
0.11491,-2.8189e-17,0.0060279,0.000261,0,0.00022831,9.6668e-19,2.3293e-21,0,5.034,1.4891e-14,0.19906,0.20122,1,0.261,1,0.025,0
0.11477,-8.4568e-17,0.0061133,0.000262,0,0.00022831,-8.104e-19,1.6941e-21,0,5.0326,-1.2861e-14,0.19899,0.20117,1,0.262,1,0.025,0
0.11461,-4.6404e-17,0.0061998,0.000263,0,0.00022829,9.6668e-19,2.3293e-21,0,5.0308,1.4877e-14,0.19889,0.20109,1,0.263,1,0.025,0
0.11444,1.7564e-16,0.0062874,0.000264,0,0.00022826,1.5734e-19,1.9058e-21,0,5.0285,2.2517e-15,0.19878,0.201,1,0.264,1,0.025,0
0.11426,-1.1709e-17,0.0063761,0.000265,0,0.0002282,9.6689e-19,1.9058e-21,0,5.0256,1.4874e-14,0.19865,0.20088,1,0.265,1,0.025,0
0.11407,-2.4156e-16,0.006466,0.000266,0,0.00022811,-2.1811e-19,2.7529e-21,0,5.0223,-3.629e-15,0.19849,0.20075,1,0.266,1,0.025,0
0.11387,-6.0282e-17,0.006557,0.000267,0,0.00022801,9.6668e-19,1.9058e-21,0,5.0184,1.4856e-14,0.19832,0.20059,1,0.267,1,0.025,0
0.11365,2.3419e-16,0.0066493,0.000268,0,0.00022789,2.1557e-19,1.9058e-21,0,5.014,3.1398e-15,0.19812,0.20042,1,0.268,1,0.025,0
0.11343,-2.0383e-17,0.0067427,0.000269,0,0.00022774,-8.1061e-19,1.9058e-21,0,5.0092,-1.2872e-14,0.1979,0.20022,1,0.269,1,0.025,0
0.11319,-3.4694e-18,0.0068374,0.00027,0,0.00022758,6.9181e-19,2.3293e-21,0,5.0038,1.0564e-14,0.19767,0.20001,1,0.27,1,0.025,0
0.11294,1.8648e-16,0.0069334,0.000271,0,0.00022739,1.7915e-18,2.5411e-21,0,4.9978,2.7676e-14,0.19741,0.19977,1,0.271,1,0.025,0
0.11268,-7.2425e-17,0.0070307,0.000272,0,0.00022718,-2.7634e-19,1.9058e-21,0,4.9914,-4.5589e-15,0.19713,0.19951,1,0.272,1,0.025,0
0.11241,-2.3852e-17,0.0071293,0.000273,0,0.00022694,8.0807e-19,2.5411e-21,0,4.9845,1.2348e-14,0.19683,0.19923,1,0.273,1,0.025,0
0.11213,3.9031e-18,0.0072292,0.000274,0,0.00022669,-1.2705e-21,1.9058e-21,0,4.977,-2.8103e-16,0.19652,0.19893,1,0.274,1,0.025,0
0.11184,-7.546e-17,0.0073304,0.000275,0,0.00022641,-5.9292e-20,1.9058e-21,0,4.969,-1.19e-15,0.19618,0.19861,1,0.275,1,0.025,0
0.11153,-7.7195e-17,0.0074329,0.000276,0,0.00022612,-8.6863e-19,1.6941e-21,0,4.9605,-1.3795e-14,0.19582,0.19827,1,0.276,1,0.025,0
0.11122,-2.125e-17,0.0075369,0.000277,0,0.0002258,1.0245e-18,1.9058e-21,0,4.9516,1.572e-14,0.19544,0.19791,1,0.277,1,0.025,0
0.11089,1.5005e-16,0.0076423,0.000278,0,0.00022546,1.1257e-18,2.5411e-21,0,4.942,1.7295e-14,0.19503,0.19753,1,0.278,1,0.025,0
0.11055,9.541e-18,0.0077494,0.000279,0,0.0002251,-2.0536e-18,2.7529e-21,0,4.932,-3.2231e-14,0.19461,0.19713,1,0.279,1,0.025,0
0.1102,-2.9404e-16,0.0078579,0.00028,0,0.00022471,-1.3027e-18,1.9058e-21,0,4.9215,-2.0501e-14,0.19417,0.19671,1,0.28,1,0.025,0
0.10984,1.1536e-16,0.0079681,0.000281,0,0.00022431,-3.1848e-19,2.5411e-21,0,4.9105,-5.1348e-15,0.19371,0.19627,1,0.281,1,0.025,0
0.10947,3.9031e-18,0.0080799,0.000282,0,0.00022388,-1.1774e-19,2.5411e-21,0,4.8989,-2.0157e-15,0.19322,0.1958,1,0.282,1,0.025,0
0.10909,-2.884e-16,0.0081933,0.000283,0,0.00022343,7.5005e-19,2.1176e-21,0,4.8869,1.1477e-14,0.19272,0.19532,1,0.283,1,0.025,0
0.1087,3.4304e-16,0.0083085,0.000284,0,0.00022296,1.3002e-18,1.9058e-21,0,4.8743,2.0008e-14,0.1922,0.19482,1,0.284,1,0.025,0
0.10829,2.073e-16,0.0084255,0.000285,0,0.00022247,1.1837e-18,2.9646e-21,0,4.8612,1.8194e-14,0.19165,0.19429,1,0.285,1,0.025,0
0.10788,1.7521e-16,0.0085443,0.000286,0,0.00022196,-8.6821e-19,2.3293e-21,0,4.8477,-1.3749e-14,0.19109,0.19375,1,0.286,1,0.025,0
0.10746,-6.4185e-17,0.0086649,0.000287,0,0.00022142,-1.1689e-19,2.5411e-21,0,4.8336,-2.04e-15,0.19051,0.19319,1,0.287,1,0.025,0
0.10702,-3.1182e-16,0.0087875,0.000288,0,0.00022087,-3.1848e-19,1.9058e-21,0,4.819,-5.218e-15,0.1899,0.1926,1,0.288,1,0.025,0
0.10657,-2.6021e-17,0.008912,0.000289,0,0.00022029,-1.1647e-19,1.4823e-21,0,4.8039,-2.0747e-15,0.18928,0.192,1,0.289,1,0.025,0
0.10612,-3.296e-17,0.0090384,0.00029,0,0.00021969,-1.1731e-19,2.9646e-21,0,4.7884,-2.0747e-15,0.18863,0.19138,1,0.29,1,0.025,0
0.10565,-6.0715e-18,0.0091669,0.000291,0,0.00021907,1.935e-18,2.3293e-21,0,4.7723,2.9837e-14,0.18797,0.19073,1,0.291,1,0.025,0
0.10517,1.4702e-16,0.0092974,0.000292,0,0.00021843,-4.3495e-19,3.1764e-21,0,4.7557,-7.036e-15,0.18728,0.19007,1,0.292,1,0.025,0
0.10468,1.5699e-16,0.0094301,0.000293,0,0.00021777,1.1833e-18,2.3293e-21,0,4.7386,1.8152e-14,0.18658,0.18938,1,0.293,1,0.025,0
0.10418,3.9638e-16,0.0095649,0.000294,0,0.00021709,2.8024e-18,1.6941e-21,0,4.721,4.3285e-14,0.18585,0.18868,1,0.294,1,0.025,0
0.10367,8.717e-17,0.009702,0.000295,0,0.00021638,-5.5142e-19,2.3293e-21,0,4.7029,-8.8887e-15,0.18511,0.18796,1,0.295,1,0.025,0
0.10315,-4.7792e-16,0.0098413,0.000296,0,0.00021566,1.6174e-18,2.1176e-21,0,4.6844,2.4779e-14,0.18434,0.18721,1,0.296,1,0.025,0
0.10262,1.9082e-17,0.009983,0.000297,0,0.00021491,1.5009e-18,2.7529e-21,0,4.6653,2.2968e-14,0.18356,0.18645,1,0.297,1,0.025,0
0.10208,-3.5996e-17,0.010127,0.000298,0,0.00021415,-1.1689e-19,2.3293e-21,0,4.6457,-2.1996e-15,0.18276,0.18567,1,0.298,1,0.025,0
0.10153,4.2934e-17,0.010274,0.000299,0,0.00021336,-1.2705e-21,2.3293e-21,0,4.6257,-3.8858e-16,0.18193,0.18486,1,0.299,1,0.025,0
0.10097,2.9837e-16,0.010423,0.0003,0,0.00021255,7.5047e-19,2.1176e-21,0,4.6052,1.1297e-14,0.18109,0.18404,1,0.3,1,0.025,0
0.1004,5.7376e-16,0.010574,0.000301,0,0.00021172,1.9346e-18,1.6941e-21,0,4.5842,2.9685e-14,0.18023,0.1832,1,0.301,1,0.025,0
0.099823,-2.9577e-16,0.010728,0.000302,0,0.00021087,-1.3015e-18,2.3293e-21,0,4.5627,-2.0643e-14,0.17934,0.18234,1,0.302,1,0.025,0
0.099234,2.0817e-17,0.010885,0.000303,0,0.00021,2.0515e-18,2.3293e-21,0,4.5407,3.1426e-14,0.17844,0.18146,1,0.303,1,0.025,0
0.098635,3.9031e-17,0.011045,0.000304,0,0.00020911,-4.2352e-22,2.1176e-21,0,4.5183,-4.4409e-16,0.17752,0.18056,1,0.304,1,0.025,0
0.098026,3.4694e-17,0.011208,0.000305,0,0.0002082,1.6178e-18,2.5411e-21,0,4.4954,2.4675e-14,0.17659,0.17965,1,0.305,1,0.025,0
0.097408,-1.5916e-16,0.011373,0.000306,0,0.00020727,3.1721e-19,2.5411e-21,0,4.472,4.4548e-15,0.17563,0.17871,1,0.306,1,0.025,0
0.09678,1.9732e-16,0.011542,0.000307,0,0.00020632,1.1842e-18,2.5411e-21,0,4.4482,1.793e-14,0.17465,0.17776,1,0.307,1,0.025,0
0.096144,-2.1684e-17,0.011714,0.000308,0,0.00020535,-1.1689e-19,2.3293e-21,0,4.4239,-2.276e-15,0.17366,0.17678,1,0.308,1,0.025,0
0.095499,1.3791e-16,0.011889,0.000309,0,0.00020437,-4.341e-19,2.5411e-21,0,4.3992,-7.2164e-15,0.17265,0.1758,1,0.309,1,0.025,0
0.094844,1.9212e-16,0.012067,0.00031,0,0.00020336,1.1846e-18,2.9646e-21,0,4.374,1.7937e-14,0.17162,0.17479,1,0.31,1,0.025,0
0.094181,2.0036e-16,0.012248,0.000311,0,0.00020233,1.1837e-18,2.7529e-21,0,4.3484,1.7895e-14,0.17057,0.17376,1,0.311,1,0.025,0
0.09351,-4.0766e-17,0.012433,0.000312,0,0.00020129,5.4845e-19,2.5411e-21,0,4.3223,8.0214e-15,0.16951,0.17272,1,0.312,1,0.025,0
0.09283,-8.8471e-17,0.012622,0.000313,0,0.00020023,-1.2705e-21,1.6941e-21,0,4.2959,-4.996e-16,0.16843,0.17166,1,0.313,1,0.025,0
0.092142,3.8164e-17,0.012814,0.000314,0,0.00019915,-1.2705e-21,2.3293e-21,0,4.269,-5.1348e-16,0.16733,0.17059,1,0.314,1,0.025,0
0.091446,-1.249e-16,0.01301,0.000315,0,0.00019805,3.1721e-19,2.7529e-21,0,4.2417,4.3993e-15,0.16621,0.16949,1,0.315,1,0.025,0
0.090742,1.9732e-16,0.01321,0.000316,0,0.00019694,-3.1806e-19,2.9646e-21,0,4.214,-5.4262e-15,0.16508,0.16838,1,0.316,1,0.025,0
0.09003,1.5396e-16,0.013414,0.000317,0,0.0001958,1.0677e-18,2.5411e-21,0,4.1859,1.605e-14,0.16394,0.16726,1,0.317,1,0.025,0
0.089311,3.5562e-16,0.013623,0.000318,0,0.00019465,2.8024e-18,3.3881e-21,0,4.1574,4.2882e-14,0.16277,0.16612,1,0.318,1,0.025,0
0.088584,-5.2042e-17,0.013835,0.000319,0,0.00019349,3.1679e-19,2.1176e-21,0,4.1285,4.3299e-15,0.16159,0.16496,1,0.319,1,0.025,0
0.08785,-1.7477e-16,0.014052,0.00032,0,0.00019231,7.5047e-19,2.1176e-21,0,4.0993,1.0991e-14,0.1604,0.16379,1,0.32,1,0.025,0
0.08711,2.9924e-17,0.014273,0.000321,0,0.00019111,-1.1689e-19,1.6941e-21,0,4.0696,-2.4217e-15,0.15919,0.16261,1,0.321,1,0.025,0
0.086362,1.7694e-16,0.0145,0.000322,0,0.0001899,1.1842e-18,2.9646e-21,0,4.0396,1.7715e-14,0.15797,0.16141,1,0.322,1,0.025,0
0.085608,-1.622e-16,0.01473,0.000323,0,0.00018867,3.1679e-19,2.9646e-21,0,4.0093,4.2605e-15,0.15673,0.16019,1,0.323,1,0.025,0
0.084848,-1.7044e-16,0.014965,0.000324,0,0.00018742,3.1679e-19,2.9646e-21,0,3.9786,4.2674e-15,0.15548,0.15896,1,0.324,1,0.025,0
0.084082,1.2273e-16,0.015204,0.000325,0,0.00018617,-5.5057e-19,2.9646e-21,0,3.9476,-9.1455e-15,0.15422,0.15772,1,0.325,1,0.025,0
0.08331,2.9794e-16,0.015448,0.000326,0,0.0001849,7.4962e-19,2.5411e-21,0,3.9163,1.0977e-14,0.15294,0.15647,1,0.326,1,0.025,0
0.082533,1.2013e-16,0.015698,0.000327,0,0.00018361,1.5009e-18,2.1176e-21,0,3.8847,2.2565e-14,0.15165,0.15521,1,0.327,1,0.025,0
0.081753,2.086e-16,0.015953,0.000328,0,0.00018232,1.0673e-18,3.3881e-21,0,3.8529,1.5862e-14,0.15035,0.15393,1,0.328,1,0.025,0
0.080968,4.5103e-17,0.016215,0.000329,0,0.00018101,-4.3453e-19,2.5411e-21,0,3.8207,-7.3344e-15,0.14904,0.15265,1,0.329,1,0.025,0
0.080179,5.2475e-17,0.016483,0.00033,0,0.0001797,-4.3368e-19,2.5411e-21,0,3.7884,-7.2928e-15,0.14772,0.15135,1,0.33,1,0.025,0
0.079386,6.245e-17,0.016757,0.000331,0,0.00017837,2.0524e-18,2.5411e-21,0,3.7558,3.1052e-14,0.1464,0.15005,1,0.331,1,0.025,0
0.07859,1.6957e-16,0.017039,0.000332,0,0.00017704,-4.3537e-19,2.5411e-21,0,3.723,-7.3413e-15,0.14506,0.14873,1,0.332,1,0.025,0
0.077789,1.1536e-16,0.017327,0.000333,0,0.00017569,-3.1764e-19,3.3881e-21,0,3.6899,-5.5581e-15,0.14371,0.14741,1,0.333,1,0.025,0
0.076986,3.0791e-17,0.017623,0.000334,0,0.00017434,-4.3453e-19,3.3881e-21,0,3.6566,-7.3275e-15,0.14235,0.14608,1,0.334,1,0.025,0
0.076179,-3.5562e-17,0.017926,0.000335,0,0.00017298,4.3283e-19,3.3881e-21,0,3.6231,6.0577e-15,0.14099,0.14474,1,0.335,1,0.025,0
0.075369,-2.3766e-16,0.018237,0.000336,0,0.0001716,1.999e-19,3.3881e-21,0,3.5894,2.4772e-15,0.13962,0.14339,1,0.336,1,0.025,0
0.074556,-4.2891e-16,0.018556,0.000337,0,0.00017022,-2.9189e-18,2.5411e-21,0,3.5555,-4.5623e-14,0.13823,0.14203,1,0.337,1,0.025,0
0.07374,-8.3267e-17,0.018883,0.000338,0,0.00016883,4.3283e-19,2.5411e-21,0,3.5214,6.0646e-15,0.13685,0.14067,1,0.338,1,0.025,0
0.072922,-2.5197e-16,0.019219,0.000339,0,0.00016744,8.6821e-19,3.3881e-21,0,3.4871,1.2705e-14,0.13545,0.1393,1,0.339,1,0.025,0
0.072101,3.3567e-16,0.019564,0.00034,0,0.00016603,2.9197e-18,2.9646e-21,0,3.4527,4.4242e-14,0.13405,0.13792,1,0.34,1,0.025,0
0.071278,-1.3487e-16,0.019918,0.000341,0,0.00016462,-1.6187e-18,3.3881e-21,0,3.4181,-2.5618e-14,0.13263,0.13653,1,0.341,1,0.025,0
0.070453,-3.4694e-18,0.020282,0.000342,0,0.00016321,-1.1689e-19,3.3881e-21,0,3.3833,-2.5119e-15,0.13122,0.13514,1,0.342,1,0.025,0
0.069626,-1.5569e-16,0.020656,0.000343,0,0.00016178,-1.1689e-19,3.3881e-21,0,3.3484,-2.4702e-15,0.1298,0.13375,1,0.343,1,0.025,0
0.068799,1.9776e-16,0.02104,0.000344,0,0.00016035,1.1842e-18,3.8116e-21,0,3.3134,1.7542e-14,0.12837,0.13234,1,0.344,1,0.025,0
0.06797,1.1319e-16,0.021435,0.000345,0,0.00015892,1.5018e-18,3.8116e-21,0,3.2783,2.2385e-14,0.12694,0.13094,1,0.345,1,0.025,0
0.067139,1.5135e-16,0.02184,0.000346,0,0.00015748,1.1842e-18,3.3881e-21,0,3.2431,1.7444e-14,0.1255,0.12953,1,0.346,1,0.025,0
0.066308,-1.7e-16,0.022258,0.000347,0,0.00015604,2.0075e-19,2.5411e-21,0,3.2077,2.3453e-15,0.12406,0.12811,1,0.347,1,0.025,0
0.065476,-5.0741e-17,0.022687,0.000348,0,0.0001546,-1.1689e-19,3.8116e-21,0,3.1723,-2.498e-15,0.12262,0.1267,1,0.348,1,0.025,0
0.064644,-4.0766e-17,0.023128,0.000349,0,0.00015315,1.9355e-18,3.3881e-21,0,3.1368,2.8921e-14,0.12117,0.12527,1,0.349,1,0.025,0
0.063811,-5.768e-17,0.023582,0.00035,0,0.0001517,5.4972e-19,2.9646e-21,0,3.1012,7.6467e-15,0.11972,0.12385,1,0.35,1,0.025,0
0.062979,5.1608e-17,0.02405,0.000351,0,0.00015024,-2.5411e-21,3.3881e-21,0,3.0656,-8.0491e-16,0.11826,0.12242,1,0.351,1,0.025,0
0.062146,-1.1579e-16,0.024531,0.000352,0,0.00014879,4.3199e-19,3.8116e-21,0,3.0299,5.7732e-15,0.11681,0.121,1,0.352,1,0.025,0
0.061314,2.6541e-16,0.025026,0.000353,0,0.00014733,1.733e-18,3.3881e-21,0,2.9942,2.5688e-14,0.11535,0.11957,1,0.353,1,0.025,0
0.060483,3.4694e-18,0.025536,0.000354,0,0.00014587,1.9355e-18,2.9646e-21,0,2.9584,2.8672e-14,0.11389,0.11814,1,0.354,1,0.025,0
0.059652,1.9212e-16,0.026062,0.000355,0,0.00014442,6.3358e-19,3.3881e-21,0,2.9227,8.743e-15,0.11244,0.11671,1,0.355,1,0.025,0
0.058822,-3.4217e-16,0.026603,0.000356,0,0.00014296,2.8028e-18,2.9646e-21,0,2.887,4.1828e-14,0.11098,0.11528,1,0.356,1,0.025,0
0.057993,9.4976e-17,0.027161,0.000357,0,0.0001415,2.6029e-18,2.9646e-21,0,2.8512,3.865e-14,0.10952,0.11385,1,0.357,1,0.025,0
0.057165,-3.3524e-16,0.027735,0.000358,0,0.00014005,1.185e-18,3.8116e-21,0,2.8155,1.6917e-14,0.10806,0.11242,1,0.358,1,0.025,0
0.056339,-5.2952e-16,0.028328,0.000359,0,0.00013859,-8.4703e-22,2.9646e-21,0,2.7798,-1.1935e-15,0.1066,0.11099,1,0.359,1,0.025,0
0.055515,4.996e-16,0.028939,0.00036,0,0.00013714,-1.1604e-19,2.9646e-21,0,2.7442,-2.9698e-15,0.10515,0.10956,1,0.36,1,0.025,0
0.054692,4.3802e-17,0.029568,0.000361,0,0.00013569,1.6187e-18,3.8116e-21,0,2.7086,2.3453e-14,0.1037,0.10814,1,0.361,1,0.025,0
0.053872,5.3776e-17,0.030218,0.000362,0,0.00013425,1.6195e-18,3.3881e-21,0,2.6731,2.3384e-14,0.10224,0.10672,1,0.362,1,0.025,0
0.053054,2.6064e-16,0.030888,0.000363,0,0.0001328,-1.301e-18,2.9646e-21,0,2.6376,-2.1011e-14,0.1008,0.1053,1,0.363,1,0.025,0
0.052239,-1.4051e-16,0.031579,0.000364,0,0.00013137,3.1679e-19,2.5411e-21,0,2.6023,3.5805e-15,0.099352,0.10388,1,0.364,1,0.025,0
0.051426,6.232e-16,0.032292,0.000365,0,0.00012993,1.5018e-18,4.2352e-21,0,2.567,2.1594e-14,0.097912,0.10247,1,0.365,1,0.025,0
0.050615,-1.7044e-16,0.033028,0.000366,0,0.00012851,8.6651e-19,3.8116e-21,0,2.5319,1.1893e-14,0.096475,0.10106,1,0.366,1,0.025,0
0.049808,-9.3675e-17,0.033787,0.000367,0,0.00012708,3.9887e-18,3.8116e-21,0,2.4968,5.9161e-14,0.095043,0.099663,1,0.367,1,0.025,0
0.049004,2.034e-16,0.034571,0.000368,0,0.00012567,-8.6906e-19,3.8116e-21,0,2.462,-1.4544e-14,0.093617,0.098267,1,0.368,1,0.025,0
0.048203,-9.4109e-17,0.03538,0.000369,0,0.00012426,6.6577e-19,3.3881e-21,0,2.4272,8.6875e-15,0.092195,0.096876,1,0.369,1,0.025,0
0.047406,-1.0799e-16,0.036215,0.00037,0,0.00012285,1.9355e-18,3.8116e-21,0,2.3926,2.7853e-14,0.09078,0.095491,1,0.37,1,0.025,0
0.046612,4.1417e-16,0.037077,0.000371,0,0.00012146,2.2514e-18,3.8116e-21,0,2.3582,3.2613e-14,0.089371,0.094113,1,0.371,1,0.025,0
0.045821,8.9772e-17,0.037967,0.000372,0,0.00012007,5.4888e-19,2.9646e-21,0,2.3239,6.814e-15,0.087969,0.092742,1,0.372,1,0.025,0
0.045035,9.9747e-17,0.038886,0.000373,0,0.00011869,9.5037e-19,3.3881e-21,0,2.2899,1.2851e-14,0.086575,0.091378,1,0.373,1,0.025,0
0.044253,3.1789e-16,0.039836,0.000374,0,0.00011732,2.802e-18,2.5411e-21,0,2.256,4.0773e-14,0.085188,0.090022,1,0.374,1,0.025,0
0.043474,7.0256e-17,0.040816,0.000375,0,0.00011596,2.0507e-18,3.8116e-21,0,2.2223,2.9338e-14,0.083809,0.088675,1,0.375,1,0.025,0
0.042701,6.2016e-17,0.041828,0.000376,0,0.00011461,-4.3537e-19,3.8116e-21,0,2.1889,-8.0769e-15,0.082439,0.087336,1,0.376,1,0.025,0
0.041931,6.3274e-16,0.042874,0.000377,0,0.00011328,1.9338e-18,3.3881e-21,0,2.1556,2.7561e-14,0.081077,0.086006,1,0.377,1,0.025,0
0.041166,9.0639e-17,0.043953,0.000378,0,0.00011195,1.733e-18,3.8116e-21,0,2.1227,2.4397e-14,0.079726,0.084686,1,0.378,1,0.025,0
0.040406,-5.9414e-17,0.045069,0.000379,0,0.00011063,4.3283e-19,4.6587e-21,0,2.0899,4.885e-15,0.078384,0.083376,1,0.379,1,0.025,0
0.039651,-3.0097e-16,0.04622,0.00038,0,0.00010933,-1.7364e-18,4.2352e-21,0,2.0575,-2.7561e-14,0.077052,0.082076,1,0.38,1,0.025,0
0.038901,-5.1304e-16,0.04741,0.000381,0,0.00010803,-2.0329e-19,4.6587e-21,0,2.0253,-4.5935e-15,0.075732,0.080787,1,0.381,1,0.025,0
0.038157,-7.2858e-17,0.048638,0.000382,0,0.00010675,2.3683e-18,4.6587e-21,0,1.9933,3.3792e-14,0.074422,0.07951,1,0.382,1,0.025,0
0.037418,-4.2934e-16,0.049906,0.000383,0,0.00010549,-5.5142e-19,3.3881e-21,0,1.9617,-9.9087e-15,0.073124,0.078244,1,0.383,1,0.025,0
0.036685,-7.3726e-17,0.051168,0.000384,0,0.00010423,2.2523e-18,5.0822e-21,0,1.9305,3.1794e-14,0.071841,0.076993,1,0.384,1,0.025,0
0.035958,4.2197e-16,0.052469,0.000385,0,0.00010298,2.3683e-18,5.0822e-21,0,1.8993,3.3473e-14,0.070561,0.075745,1,0.385,1,0.025,0
0.035238,-1.3314e-16,0.053759,0.000386,0,0.00010174,2.4852e-18,4.6587e-21,0,1.8684,3.5083e-14,0.069292,0.07451,1,0.386,1,0.025,0
0.034521,1.5656e-16,0.055089,0.000387,0,0.0001005,9.5122e-19,4.2352e-21,0,1.8376,1.2254e-14,0.068022,0.073273,1,0.387,1,0.025,0
0.033811,5.4991e-16,0.05646,0.000388,0,9.9267e-05,-1.1774e-19,5.0822e-21,0,1.8068,-3.5527e-15,0.066759,0.072043,1,0.388,1,0.025,0
0.033107,3.8034e-16,0.057873,0.000389,0,9.804e-05,1.9355e-18,5.5057e-21,0,1.7763,2.6826e-14,0.065503,0.070821,1,0.389,1,0.025,0
0.03241,-1.7911e-16,0.059329,0.00039,0,9.6824e-05,-2.3378e-19,5.0822e-21,0,1.746,-5.2458e-15,0.064256,0.069607,1,0.39,1,0.025,0
0.031719,-1.0907e-16,0.06083,0.000391,0,9.5619e-05,-1.7364e-18,4.6587e-21,0,1.7159,-2.7311e-14,0.06302,0.068404,1,0.391,1,0.025,0
0.031035,4.944e-17,0.062377,0.000392,0,9.4426e-05,1.0673e-18,6.3527e-21,0,1.6861,1.3947e-14,0.061794,0.067212,1,0.392,1,0.025,0
0.030357,2.1597e-16,0.06397,0.000393,0,9.3248e-05,7.5047e-19,3.8116e-21,0,1.6567,9.2565e-15,0.060582,0.066032,1,0.393,1,0.025,0
0.029688,-2.0101e-16,0.065612,0.000394,0,9.2085e-05,7.5047e-19,4.2352e-21,0,1.6276,9.1871e-15,0.059383,0.064867,1,0.394,1,0.025,0
0.029026,1.7564e-17,0.067297,0.000395,0,9.0939e-05,-2.6021e-18,4.2352e-21,0,1.5988,-3.9871e-14,0.0582,0.063716,1,0.395,1,0.025,0
0.028372,9.194e-17,0.069028,0.000396,0,8.981e-05,-4.3453e-19,4.6587e-21,0,1.5705,-8.0491e-15,0.057033,0.062582,1,0.396,1,0.025,0
0.027726,1.0192e-17,0.07081,0.000397,0,8.87e-05,1.617e-18,3.8116e-21,0,1.5426,2.1858e-14,0.055883,0.061465,1,0.397,1,0.025,0
0.027089,6.3534e-17,0.072645,0.000398,0,8.7612e-05,1.6178e-18,4.2352e-21,0,1.5152,2.176e-14,0.054751,0.060366,1,0.398,1,0.025,0
0.026462,-3.2504e-16,0.074499,0.000399,0,8.6544e-05,8.6567e-19,3.3881e-21,0,1.4882,1.0769e-14,0.053641,0.059288,1,0.399,1,0.025,0
0.025844,2.7148e-16,0.076403,0.0004,0,8.5498e-05,7.4962e-19,5.0822e-21,0,1.4618,9.1038e-15,0.05255,0.05823,1,0.4,1,0.025,0
0.025236,2.9664e-16,0.078331,0.000401,0,8.4476e-05,3.3526e-18,4.2352e-21,0,1.4359,4.6602e-14,0.051482,0.057194,1,0.401,1,0.025,0
0.024637,-7.6762e-17,0.080315,0.000402,0,8.3478e-05,-4.3453e-19,4.2352e-21,0,1.4106,-8.0908e-15,0.050435,0.056179,1,0.402,1,0.025,0
0.024048,3.567e-16,0.082356,0.000403,0,8.2506e-05,8.6651e-19,5.5057e-21,0,1.3858,1.07e-14,0.049412,0.055186,1,0.403,1,0.025,0
0.023471,-8.6736e-18,0.084457,0.000404,0,8.1561e-05,-8.4703e-22,4.2352e-21,0,1.3616,-1.818e-15,0.048412,0.054218,1,0.404,1,0.025,0
0.022905,1.7954e-16,0.086617,0.000405,0,8.0645e-05,1.1842e-18,3.3881e-21,0,1.338,1.5196e-14,0.047437,0.053274,1,0.405,1,0.025,0
0.022351,-4.9656e-17,0.08884,0.000406,0,7.9758e-05,-8.4703e-22,4.6587e-21,0,1.3151,-1.818e-15,0.046487,0.052354,1,0.406,1,0.025,0
0.021809,5.9848e-17,0.091125,0.000407,0,7.89e-05,1.1842e-18,5.5057e-21,0,1.2927,1.5099e-14,0.045564,0.05146,1,0.407,1,0.025,0
0.021279,5.8699e-16,0.093473,0.000408,0,7.8073e-05,-4.3453e-19,4.2352e-21,0,1.2711,-7.9242e-15,0.044666,0.050592,1,0.408,1,0.025,0
0.020763,-1.854e-16,0.09584,0.000409,0,7.7276e-05,-1.1858e-18,5.9292e-21,0,1.2501,-1.861e-14,0.043797,0.049752,1,0.409,1,0.025,0
0.020259,-5.2475e-17,0.098271,0.00041,0,7.6508e-05,-1.6941e-21,4.2352e-21,0,1.2297,-1.7625e-15,0.042953,0.048936,1,0.41,1,0.025,0
0.019769,-6.8522e-17,0.10077,0.000411,0,7.5771e-05,4.3199e-19,5.0822e-21,0,1.21,4.2188e-15,0.042135,0.048146,1,0.411,1,0.025,0
0.019293,-1.8496e-16,0.1033,0.000412,0,7.5065e-05,8.6567e-19,5.0822e-21,0,1.1909,1.0339e-14,0.041346,0.047384,1,0.412,1,0.025,0
0.01883,1.8648e-16,0.1059,0.000413,0,7.4389e-05,1.7339e-18,5.0822e-21,0,1.1725,2.2454e-14,0.040582,0.046646,1,0.413,1,0.025,0
0.018381,-6.5052e-17,0.10857,0.000414,0,7.3744e-05,4.3199e-19,6.7763e-21,0,1.1547,4.0801e-15,0.039845,0.045934,1,0.414,1,0.025,0
0.017946,6.0498e-17,0.11132,0.000415,0,7.3131e-05,-1.6941e-21,5.0822e-21,0,1.1376,-1.9568e-15,0.039135,0.045248,1,0.415,1,0.025,0
0.017526,2.0383e-17,0.11414,0.000416,0,7.2549e-05,-1.5026e-18,5.0822e-21,0,1.1211,-2.2898e-14,0.038451,0.044587,1,0.416,1,0.025,0
0.01712,1.3292e-16,0.11704,0.000417,0,7.1999e-05,1.152e-19,5.0822e-21,0,1.1052,-4.1633e-16,0.037793,0.043951,1,0.417,1,0.025,0
0.01673,-2.9057e-17,0.12002,0.000418,0,7.148e-05,-1.6195e-18,4.2352e-21,0,1.09,-2.4383e-14,0.037161,0.04334,1,0.418,1,0.025,0
0.016353,3.5475e-16,0.12308,0.000419,0,7.0991e-05,-6.3697e-19,5.9292e-21,0,1.0753,-1.0811e-14,0.036554,0.042752,1,0.419,1,0.025,0
0.015992,-7.3943e-17,0.12623,0.00042,0,7.0532e-05,-1.0698e-18,5.0822e-21,0,1.0612,-1.6778e-14,0.035972,0.042187,1,0.42,1,0.025,0
0.015645,1.5721e-16,0.12948,0.000421,0,7.0103e-05,-3.8726e-18,5.9292e-21,0,1.0476,-5.4956e-14,0.035413,0.041644,1,0.421,1,0.025,0
0.015312,-8.0014e-17,0.13283,0.000422,0,6.9702e-05,-2.8045e-18,4.2352e-21,0,1.0346,-4.0176e-14,0.034878,0.041122,1,0.422,1,0.025,0
0.014993,2.8428e-16,0.13628,0.000423,0,6.9329e-05,-5.2008e-19,4.2352e-21,0,1.022,-8.9928e-15,0.034364,0.04062,1,0.423,1,0.025,0
0.014688,5.0307e-17,0.13985,0.000424,0,6.8983e-05,-3.9887e-18,5.9292e-21,0,1.01,-5.5816e-14,0.033872,0.040137,1,0.424,1,0.025,0
0.014396,-3.6212e-17,0.14354,0.000425,0,6.8663e-05,-3.0053e-18,5.0822e-21,0,0.99832,-4.2355e-14,0.033399,0.039672,1,0.425,1,0.025,0
0.014116,-1.6025e-16,0.14737,0.000426,0,6.8367e-05,-2.0219e-18,5.0822e-21,0,0.98708,-2.9046e-14,0.032944,0.039222,1,0.426,1,0.025,0
0.013848,-9.606e-17,0.15136,0.000427,0,6.8096e-05,-8.7244e-20,5.0822e-21,0,0.97618,-3.1225e-15,0.032507,0.038786,1,0.427,1,0.025,0
0.013591,-9.6277e-17,0.15551,0.000428,0,6.7846e-05,-1.6195e-18,5.9292e-21,0,0.96557,-2.344e-14,0.032085,0.038362,1,0.428,1,0.025,0
0.013344,2.5804e-17,0.15986,0.000429,0,6.7617e-05,-1.069e-18,4.2352e-21,0,0.9552,-1.6126e-14,0.031676,0.037947,1,0.429,1,0.025,0
0.013106,-2.3657e-16,0.16444,0.00043,0,6.7406e-05,-3.2391e-18,4.2352e-21,0,0.94498,-4.4451e-14,0.031278,0.037539,1,0.43,1,0.025,0
0.012875,3.1485e-16,0.16927,0.000431,0,6.7212e-05,-4.0742e-18,5.9292e-21,0,0.93484,-5.5081e-14,0.030888,0.037134,1,0.431,1,0.025,0
0.012649,8.0665e-17,0.17442,0.000432,0,6.7031e-05,-3.3238e-18,5.0822e-21,0,0.92466,-4.5089e-14,0.030502,0.036728,1,0.432,1,0.025,0
0.012427,-3.5562e-17,0.17993,0.000433,0,6.686e-05,-3.0061e-18,4.2352e-21,0,0.91432,-4.062e-14,0.030117,0.036315,1,0.433,1,0.025,0
0.012206,-2.5088e-16,0.18589,0.000434,0,6.6695e-05,-2.2556e-18,5.5057e-21,0,0.90365,-3.0712e-14,0.029727,0.03589,1,0.434,1,0.025,0
0.011982,7.069e-17,0.19239,0.000435,0,6.653e-05,-5.3753e-18,4.2352e-21,0,0.89244,-7.0069e-14,0.029326,0.035444,1,0.435,1,0.025,0
0.0086309,-4.0983e-17,0.20197,0.000436,0,5.9733e-05,-2.4555e-18,4.2352e-21,0,0.75542,-3.2613e-14,0.023941,0.029968,1,0.436,1,0.025,0
0.0074224,-7.5894e-19,0.21426,0.000437,0,5.749e-05,-3.1222e-18,5.5057e-21,0,0.70216,-4.0398e-14,0.021955,0.027844,1,0.437,1,0.025,0
0.006526,-1.3553e-17,0.23008,0.000438,0,5.59e-05,-1.0706e-18,4.6587e-21,0,0.6589,-1.4655e-14,0.020429,0.026122,1,0.438,1,0.025,0
0.0058851,-1.7998e-17,0.24573,0.000439,0,5.482e-05,3.1594e-19,4.2352e-21,0,0.62587,1.9984e-15,0.019313,0.024809,1,0.439,1,0.025,0
0.0057727,-1.1601e-16,0.25749,0.00044,0,5.4876e-05,3.1594e-19,3.3881e-21,0,0.61629,1.9429e-15,0.019075,0.024431,1,0.44,1,0.025,0
0.0098502,4.3585e-17,0.26333,0.000441,0,6.4594e-05,1.7339e-18,4.2352e-21,0,0.77635,1.8395e-14,0.025529,0.030834,1,0.441,1,0.025,0
0.010185,8.3267e-17,0.27076,0.000442,0,6.5743e-05,3.6693e-18,4.6587e-21,0,0.78709,4.0357e-14,0.026037,0.031266,1,0.442,1,0.025,0
0.010279,1.2902e-16,0.27852,0.000443,0,6.6347e-05,-3.1933e-19,5.5057e-21,0,0.78801,-5.447e-15,0.026157,0.031306,1,0.443,1,0.025,0
0.010348,-7.3292e-17,0.28653,0.000444,0,6.6907e-05,-2.0541e-18,4.2352e-21,0,0.78771,-2.4807e-14,0.026232,0.031298,1,0.444,1,0.025,0
0.010411,1.3834e-16,0.29469,0.000445,0,6.7464e-05,-7.5301e-19,5.5057e-21,0,0.787,-1.0034e-14,0.026295,0.031273,1,0.445,1,0.025,0
0.010472,8.8254e-17,0.30296,0.000446,0,6.8024e-05,1.617e-18,4.6587e-21,0,0.78603,1.6015e-14,0.026348,0.031238,1,0.446,1,0.025,0
0.010531,-1.4095e-16,0.31131,0.000447,0,6.8588e-05,1.9905e-19,4.2352e-21,0,0.78485,5.3429e-16,0.026395,0.031194,1,0.447,1,0.025,0
0.010589,-3.8598e-17,0.31975,0.000448,0,6.9159e-05,1.135e-19,4.2352e-21,0,0.78346,-4.4409e-16,0.026435,0.031142,1,0.448,1,0.025,0
0.010646,-1.9039e-16,0.32827,0.000449,0,6.9736e-05,4.3199e-19,4.6587e-21,0,0.78187,3.0045e-15,0.026468,0.031082,1,0.449,1,0.025,0
0.010702,-5.5728e-17,0.33687,0.00045,0,7.032e-05,-2.0541e-18,4.6587e-21,0,0.78008,-2.3183e-14,0.026495,0.031014,1,0.45,1,0.025,0
0.010755,-7.3509e-17,0.34555,0.000451,0,7.0912e-05,-1.8533e-18,4.6587e-21,0,0.77811,-2.0733e-14,0.026516,0.030939,1,0.451,1,0.025,0
0.010808,2.7105e-16,0.35431,0.000452,0,7.1512e-05,2.3683e-18,3.8116e-21,0,0.77594,2.2586e-14,0.026531,0.030857,1,0.452,1,0.025,0
0.010858,1.4149e-16,0.36314,0.000453,0,7.212e-05,3.4669e-18,4.6587e-21,0,0.7736,3.3376e-14,0.02654,0.030767,1,0.453,1,0.025,0
0.010908,-4.3151e-17,0.37203,0.000454,0,7.2738e-05,2.4843e-18,4.2352e-21,0,0.77108,2.31e-14,0.026542,0.03067,1,0.454,1,0.025,0
0.010955,-8.1424e-17,0.381,0.000455,0,7.3367e-05,2.3675e-18,4.2352e-21,0,0.76839,2.1656e-14,0.02654,0.030567,1,0.455,1,0.025,0
0.011001,-3.7839e-17,0.39002,0.000456,0,7.4006e-05,-1.6941e-21,3.3881e-21,0,0.76554,-1.4849e-15,0.026531,0.030457,1,0.456,1,0.025,0
0.011045,1.6003e-16,0.39911,0.000457,0,7.4657e-05,3.2348e-18,3.8116e-21,0,0.76253,2.9192e-14,0.026518,0.030341,1,0.457,1,0.025,0
0.011088,6.5594e-17,0.40824,0.000458,0,7.5321e-05,-8.6906e-19,4.2352e-21,0,0.75938,-9.6312e-15,0.026499,0.030219,1,0.458,1,0.025,0
0.011129,-4.8789e-17,0.41743,0.000459,0,7.5998e-05,3.987e-18,4.2352e-21,0,0.75608,3.5298e-14,0.026475,0.030091,1,0.459,1,0.025,0
0.011168,4.3585e-17,0.42666,0.00046,0,7.669e-05,1.2993e-18,3.8116e-21,0,0.75264,1.0381e-14,0.026446,0.029958,1,0.46,1,0.025,0
0.011206,2.1684e-18,0.43593,0.000461,0,7.7396e-05,2.6004e-18,4.2352e-21,0,0.74908,2.1726e-14,0.026412,0.029819,1,0.461,1,0.025,0
0.011242,4.1417e-17,0.44524,0.000462,0,7.8118e-05,-1.2172e-18,4.2352e-21,0,0.74538,-1.2358e-14,0.026374,0.029675,1,0.462,1,0.025,0
0.011276,2.3852e-16,0.45458,0.000463,0,7.8856e-05,9.8256e-19,2.9646e-21,0,0.74156,6.8834e-15,0.026331,0.029527,1,0.463,1,0.025,0
0.011309,-1.442e-16,0.46394,0.000464,0,7.9612e-05,3.1594e-19,3.8116e-21,0,0.73763,1.4086e-15,0.026284,0.029374,1,0.464,1,0.025,0
0.011341,-4.8464e-17,0.47333,0.000465,0,8.0386e-05,-1.6941e-21,3.8116e-21,0,0.73358,-1.3115e-15,0.026232,0.029216,1,0.465,1,0.025,0
0.011371,-1.8117e-16,0.48273,0.000466,0,8.1179e-05,6.3273e-19,3.8116e-21,0,0.72943,4.0176e-15,0.026176,0.029054,1,0.466,1,0.025,0
0.011399,-2.0264e-16,0.49214,0.000467,0,8.1993e-05,9.5037e-19,4.6587e-21,0,0.72517,6.3283e-15,0.026116,0.028889,1,0.467,1,0.025,0
0.011426,-1.0701e-16,0.50156,0.000468,0,8.2827e-05,1.1825e-18,3.3881e-21,0,0.72082,7.9034e-15,0.026052,0.028719,1,0.468,1,0.025,0
0.011451,2.884e-17,0.51098,0.000469,0,8.3684e-05,1.617e-18,4.2352e-21,0,0.71637,1.1276e-14,0.025983,0.028545,1,0.469,1,0.025,0
0.011474,-1.6285e-16,0.5204,0.00047,0,8.4563e-05,-1.3019e-18,3.3881e-21,0,0.71183,-1.1151e-14,0.025911,0.028368,1,0.47,1,0.025,0
0.011496,3.2526e-18,0.5298,0.000471,0,8.5466e-05,-8.4703e-22,4.2352e-21,0,0.70721,-1.2906e-15,0.025835,0.028187,1,0.471,1,0.025,0
0.011517,8.099e-17,0.53919,0.000472,0,8.6395e-05,1.1833e-18,3.3881e-21,0,0.70251,7.4801e-15,0.025754,0.028003,1,0.472,1,0.025,0
0.011536,-5.2584e-17,0.54856,0.000473,0,8.735e-05,4.3283e-19,3.8116e-21,0,0.69774,1.8457e-15,0.02567,0.027816,1,0.473,1,0.025,0
0.011553,-1.0517e-17,0.5579,0.000474,0,8.8332e-05,-1.1689e-19,3.3881e-21,0,0.69289,-2.0955e-15,0.025583,0.027627,1,0.474,1,0.025,0
0.011569,-3.8272e-17,0.56721,0.000475,0,8.9343e-05,2.6012e-18,2.1176e-21,0,0.68797,1.6924e-14,0.025492,0.027434,1,0.475,1,0.025,0
0.011583,-6.1149e-17,0.57649,0.000476,0,9.0384e-05,4.3199e-19,3.3881e-21,0,0.68299,1.8943e-15,0.025397,0.027239,1,0.476,1,0.025,0
0.011596,2.2768e-18,0.58572,0.000477,0,9.1455e-05,0,3.8116e-21,0,0.67795,-1.1137e-15,0.025298,0.027041,1,0.477,1,0.025,0
0.011608,-8.1207e-17,0.59491,0.000478,0,9.2559e-05,-9.5291e-19,2.5411e-21,0,0.67285,-7.1679e-15,0.025197,0.026841,1,0.478,1,0.025,0
0.011618,4.5645e-17,0.60405,0.000479,0,9.3697e-05,1.6187e-18,2.9646e-21,0,0.6677,8.9581e-15,0.025092,0.026639,1,0.479,1,0.025,0
0.011626,1.1601e-17,0.61313,0.00048,0,9.487e-05,-8.4703e-22,4.2352e-21,0,0.66251,-1.2143e-15,0.024983,0.026435,1,0.48,1,0.025,0
0.011633,-9.9747e-17,0.62214,0.000481,0,9.608e-05,3.1848e-19,4.6587e-21,0,0.65726,1.0408e-15,0.024871,0.026229,1,0.481,1,0.025,0
0.011639,8.2616e-17,0.63109,0.000482,0,9.7328e-05,1.3002e-18,3.3881e-21,0,0.65198,6.6856e-15,0.024756,0.026022,1,0.482,1,0.025,0
0.011643,2.4828e-17,0.63997,0.000483,0,9.8616e-05,-3.1679e-19,4.6587e-21,0,0.64666,-2.6958e-15,0.024638,0.025813,1,0.483,1,0.025,0
0.011645,2.9707e-17,0.64878,0.000484,0,9.9945e-05,1.301e-18,2.9646e-21,0,0.64131,6.5122e-15,0.024517,0.025602,1,0.484,1,0.025,0
0.011647,-1.8757e-17,0.6575,0.000485,0,0.00010132,-1.3866e-18,2.5411e-21,0,0.63593,-8.6112e-15,0.024393,0.025391,1,0.485,1,0.025,0
0.011646,1.3238e-16,0.66614,0.000486,0,0.00010273,2.9197e-18,3.3881e-21,0,0.63051,1.4523e-14,0.024266,0.025178,1,0.486,1,0.025,0
0.011645,1.8974e-17,0.67468,0.000487,0,0.0001042,2.2844e-18,3.8116e-21,0,0.62508,1.1151e-14,0.024136,0.024964,1,0.487,1,0.025,0
0.011642,7.6219e-17,0.68314,0.000488,0,0.00010571,-7.5217e-19,4.2352e-21,0,0.61962,-4.9023e-15,0.024003,0.024749,1,0.488,1,0.025,0
0.011637,-6.8088e-17,0.69149,0.000489,0,0.00010727,7.4962e-19,3.3881e-21,0,0.61415,3.0045e-15,0.023868,0.024533,1,0.489,1,0.025,0
0.011633,-1.1493e-17,0.69969,0.00049,0,0.00010889,-1.1689e-19,3.8116e-21,0,0.60876,-1.6653e-15,0.023733,0.024321,1,0.49,1,0.025,0
0.011627,-8.6736e-17,0.70779,0.000491,0,0.00011055,3.1679e-19,3.3881e-21,0,0.60332,8.9859e-16,0.023594,0.024106,1,0.491,1,0.025,0
0.011619,2.9273e-17,0.71577,0.000492,0,0.00011227,3.1205e-18,3.3881e-21,0,0.59786,1.3479e-14,0.023453,0.023891,1,0.492,1,0.025,0
0.011609,5.8547e-17,0.72365,0.000493,0,0.00011404,1.3002e-18,3.8116e-21,0,0.59239,4.8399e-15,0.023308,0.023675,1,0.493,1,0.025,0
0.011598,-9.3133e-17,0.73141,0.000494,0,0.00011588,7.5047e-19,2.9646e-21,0,0.58692,2.6576e-15,0.023161,0.023459,1,0.494,1,0.025,0
0.011586,-5.7463e-18,0.73905,0.000495,0,0.00011778,1.5009e-18,3.8116e-21,0,0.58144,5.5407e-15,0.023012,0.023242,1,0.495,1,0.025,0
0.011574,-3.7947e-18,0.74653,0.000496,0,0.00011974,-8.4703e-22,3.3881e-21,0,0.57606,-7.9797e-16,0.022864,0.02303,1,0.496,1,0.025,0
0.01156,4.1417e-17,0.75388,0.000497,0,0.00012176,1.1842e-18,3.3881e-21,0,0.57066,3.9101e-15,0.022713,0.022816,1,0.497,1,0.025,0
0.011545,-1.0625e-16,0.7611,0.000498,0,0.00012385,-7.5132e-19,3.8116e-21,0,0.56524,-3.3688e-15,0.02256,0.022602,1,0.498,1,0.025,0
0.011527,-1.2859e-16,0.7682,0.000499,0,0.00012601,1.0681e-18,3.3881e-21,0,0.55983,3.636e-15,0.022403,0.022388,1,0.499,1,0.025,0
0.011509,1.236e-17,0.77517,0.0005,0,0.00012824,2.1684e-18,2.5411e-21,0,0.55442,7.4558e-15,0.022245,0.022174,1,0.5,1,0.025,0
0.011489,3.2634e-17,0.78201,0.000501,0,0.00013055,2.6012e-18,2.9646e-21,0,0.54902,8.5383e-15,0.022085,0.02196,1,0.501,1,0.025,0
0.011468,-3.979e-17,0.78871,0.000502,0,0.00013294,7.5047e-19,3.8116e-21,0,0.54364,1.9117e-15,0.021923,0.021747,1,0.502,1,0.025,0
0.011447,5.0524e-17,0.79524,0.000503,0,0.00013541,1.1842e-18,3.3881e-21,0,0.53837,3.178e-15,0.021763,0.021538,1,0.503,1,0.025,0
0.0092527,1.2783e-16,0.80463,0.000504,0,0.0001217,2.1676e-18,3.3881e-21,0,0.45152,6.2103e-15,0.018365,0.018068,1,0.504,1,0.025,0
0.010106,1.1677e-16,0.81023,0.000505,0,0.00013091,2.6012e-18,3.3881e-21,0,0.47884,7.3674e-15,0.019498,0.019162,1,0.505,1,0.025,0
0.010592,5.7463e-17,0.81578,0.000506,0,0.00013747,1.8508e-18,2.9646e-21,0,0.49268,4.9943e-15,0.02009,0.019717,1,0.506,1,0.025,0
0.010869,1.5569e-16,0.8213,0.000507,0,0.00014257,1.5018e-18,3.8116e-21,0,0.49887,3.3758e-15,0.020375,0.019966,1,0.507,1,0.025,0
0.011023,1.2653e-16,0.82682,0.000508,0,0.00014687,2.6021e-18,3.3881e-21,0,0.50052,6.4688e-15,0.020478,0.020033,1,0.508,1,0.025,0
0.0092392,1.3769e-17,0.83486,0.000509,0,0.00013459,2.1684e-18,3.3881e-21,0,0.43025,5.4869e-15,0.017722,0.017226,1,0.509,1,0.025,0
0.0099438,-2.3148e-17,0.83977,0.00051,0,0.00014398,4.3368e-19,4.2352e-21,0,0.45214,7.1644e-16,0.018627,0.018102,1,0.51,1,0.025,0
0.010375,3.6321e-17,0.8446,0.000511,0,0.00015114,1.7339e-18,4.2352e-21,0,0.46414,3.8441e-15,0.019135,0.018583,1,0.511,1,0.025,0
0.010637,3.09e-17,0.8494,0.000512,0,0.00015699,-2.0159e-19,4.2352e-21,0,0.47005,-9.992e-16,0.019398,0.01882,1,0.512,1,0.025,0
0.010793,6.0607e-17,0.85419,0.000513,0,0.00016205,2.0075e-19,3.3881e-21,0,0.47207,-2.897e-16,0.019505,0.018902,1,0.513,1,0.025,0
0.0092677,3.5074e-17,0.86122,0.000514,0,0.00015058,1.185e-18,4.2352e-21,0,0.4124,2.1753e-15,0.017157,0.016517,1,0.514,1,0.025,0
0.0098185,4.391e-18,0.86553,0.000515,0,0.00016,1.7339e-18,4.2352e-21,0,0.42876,3.6828e-15,0.017832,0.017172,1,0.515,1,0.025,0
0.010175,8.7332e-17,0.86976,0.000516,0,0.00016765,5.4972e-19,2.9646e-21,0,0.43823,5.5338e-16,0.01823,0.017552,1,0.516,1,0.025,0
0.010405,6.7763e-18,0.87393,0.000517,0,0.00017418,8.4703e-22,3.3881e-21,0,0.44317,-4.8399e-16,0.018445,0.01775,1,0.517,1,0.025,0
0.010548,7.4214e-17,0.87806,0.000518,0,0.00018002,3.0349e-18,4.6587e-21,0,0.44501,5.6535e-15,0.018535,0.017824,1,0.518,1,0.025,0
0.0092489,1.1655e-17,0.88411,0.000519,0,0.00016947,2.2844e-18,3.8116e-21,0,0.39458,4.1547e-15,0.016543,0.015808,1,0.519,1,0.025,0
0.009674,2.2335e-17,0.88786,0.00052,0,0.00017904,1.0681e-18,3.3881e-21,0,0.40656,1.5942e-15,0.017034,0.016288,1,0.52,1,0.025,0
0.009963,4.8789e-19,0.89149,0.000521,0,0.00018721,1.3857e-18,3.8116e-21,0,0.4138,2.1979e-15,0.017335,0.016578,1,0.521,1,0.025,0
0.010157,-2.0979e-17,0.89506,0.000522,0,0.00019446,-8.4703e-22,4.2352e-21,0,0.41773,-1.0582e-16,0.017502,0.016736,1,0.522,1,0.025,0
0.010283,1.2631e-17,0.89858,0.000523,0,0.00020112,-3.1764e-19,4.2352e-21,0,0.41926,-9.2808e-16,0.017571,0.016797,1,0.523,1,0.025,0
0.01036,1.1601e-17,0.90204,0.000524,0,0.00020739,-8.6736e-19,3.3881e-21,0,0.41909,-1.8076e-15,0.017572,0.01679,1,0.524,1,0.025,0
0.010401,-4.7705e-18,0.90544,0.000525,0,0.00021344,1.1604e-19,3.3881e-21,0,0.41771,-7.8063e-18,0.017523,0.016735,1,0.525,1,0.025,0
0.0092878,2.1955e-17,0.91036,0.000526,0,0.00020343,1.7347e-18,4.2352e-21,0,0.37517,2.2812e-15,0.015831,0.015035,1,0.526,1,0.025,0
0.0095445,-1.0734e-17,0.91341,0.000527,0,0.00021297,2.0524e-18,2.9646e-21,0,0.38145,2.8337e-15,0.016085,0.015286,1,0.527,1,0.025,0
0.0097273,4.7109e-17,0.91634,0.000528,0,0.00022163,3.1764e-19,2.5411e-21,0,0.38526,-4.944e-17,0.016239,0.015438,1,0.528,1,0.025,0
0.0098547,-1.6263e-18,0.91918,0.000529,0,0.0002297,1.1604e-19,2.9646e-21,0,0.38721,-4.3368e-17,0.016318,0.015516,1,0.529,1,0.025,0
0.0099388,3.3936e-17,0.92195,0.00053,0,0.00023736,8.6736e-19,2.1176e-21,0,0.3877,7.4853e-16,0.016337,0.015536,1,0.53,1,0.025,0
0.0099923,1.3932e-17,0.92464,0.000531,0,0.00024476,2.3124e-19,3.8116e-21,0,0.38719,5.0307e-17,0.016316,0.015515,1,0.531,1,0.025,0
0.01002,1.5775e-17,0.92726,0.000532,0,0.000252,1.1842e-18,3.3881e-21,0,0.38583,1.1727e-15,0.01626,0.015461,1,0.532,1,0.025,0
0.010029,4.4561e-17,0.92981,0.000533,0,0.00025916,2.6029e-18,2.5411e-21,0,0.38386,2.7678e-15,0.016179,0.015382,1,0.533,1,0.025,0
0.010023,3.8543e-17,0.93229,0.000534,0,0.00026629,3.0349e-18,2.1176e-21,0,0.38144,3.2864e-15,0.016078,0.015285,1,0.534,1,0.025,0
0.010005,5.9143e-17,0.93469,0.000535,0,0.00027346,1.7339e-18,3.8116e-21,0,0.37869,1.5326e-15,0.015964,0.015175,1,0.535,1,0.025,0
0.009979,2.2172e-17,0.93701,0.000536,0,0.00028068,-2.0159e-19,3.3881e-21,0,0.37571,-4.7965e-16,0.01584,0.015056,1,0.536,1,0.025,0
0.0099463,4.3151e-17,0.93925,0.000537,0,0.00028799,9.8341e-19,2.9646e-21,0,0.37257,5.8113e-16,0.015708,0.01493,1,0.537,1,0.025,0
0.0099084,1.236e-17,0.94141,0.000538,0,0.00029541,-2.0159e-19,2.9646e-21,0,0.36932,-3.6776e-16,0.015572,0.0148,1,0.538,1,0.025,0
0.0098665,1.8757e-17,0.9435,0.000539,0,0.00030295,-3.1764e-19,2.1176e-21,0,0.36601,-6.4445e-16,0.015432,0.014667,1,0.539,1,0.025,0
0.0098215,3.4586e-17,0.9455,0.00054,0,0.00031063,1.0986e-18,3.8116e-21,0,0.36266,7.7802e-16,0.01529,0.014533,1,0.54,1,0.025,0
0.0097741,4.5536e-17,0.94743,0.000541,0,0.00031846,2.0515e-18,2.1176e-21,0,0.3593,1.4546e-15,0.015147,0.014398,1,0.541,1,0.025,0
0.0097249,3.1984e-17,0.94928,0.000542,0,0.00032643,7.5217e-19,3.8116e-21,0,0.35595,2.4286e-16,0.015004,0.014264,1,0.542,1,0.025,0
0.0096741,1.8052e-17,0.95107,0.000543,0,0.00033457,1.301e-18,3.3881e-21,0,0.35262,8.8905e-16,0.014861,0.01413,1,0.543,1,0.025,0
0.0096223,3.7622e-17,0.95278,0.000544,0,0.00034287,6.6661e-19,3.3881e-21,0,0.34932,2.4199e-16,0.014719,0.013998,1,0.544,1,0.025,0
0.0095696,1.3986e-17,0.95442,0.000545,0,0.00035134,1.301e-18,3.8116e-21,0,0.34607,8.292e-16,0.014578,0.013868,1,0.545,1,0.025,0
0.0095193,2.4828e-17,0.95598,0.000546,0,0.00035998,1.4171e-18,3.3881e-21,0,0.34297,8.3787e-16,0.014444,0.013743,1,0.546,1,0.025,0
0.0094681,2.5153e-17,0.95748,0.000547,0,0.00036878,-1.0681e-18,4.2352e-21,0,0.33991,-1.1133e-15,0.014311,0.01362,1,0.547,1,0.025,0
0.0094164,3.5996e-17,0.95891,0.000548,0,0.00037774,2.6021e-18,3.3881e-21,0,0.3369,1.5699e-15,0.014179,0.0135,1,0.548,1,0.025,0
0.0093644,1.1655e-17,0.96029,0.000549,0,0.00038687,3.3543e-18,4.6587e-21,0,0.33395,2.2296e-15,0.014049,0.013381,1,0.549,1,0.025,0
0.0093121,1.9841e-17,0.96161,0.00055,0,0.00039617,3.1764e-19,3.3881e-21,0,0.33106,-4.9006e-17,0.013922,0.013265,1,0.55,1,0.025,0
0.0092597,2.2009e-17,0.96288,0.000551,0,0.00040563,1.0994e-18,4.2352e-21,0,0.32823,5.408e-16,0.013797,0.013152,1,0.551,1,0.025,0
0.0092074,2.1196e-17,0.96409,0.000552,0,0.00041527,5.5057e-19,3.3881e-21,0,0.32547,1.5266e-16,0.013674,0.013041,1,0.552,1,0.025,0
0.0091552,1.3227e-17,0.96525,0.000553,0,0.00042507,1.4179e-18,3.8116e-21,0,0.32278,7.3292e-16,0.013554,0.012933,1,0.553,1,0.025,0
0.0091033,4.1308e-17,0.96636,0.000554,0,0.00043504,7.4878e-19,3.3881e-21,0,0.32017,5.2042e-17,0.013437,0.012828,1,0.554,1,0.025,0
0.0090518,2.6834e-17,0.96743,0.000555,0,0.00044518,2.2828e-18,3.8116e-21,0,0.31763,1.0989e-15,0.013323,0.012726,1,0.555,1,0.025,0
0.0090007,1.6426e-17,0.96845,0.000556,0,0.00045549,2.6012e-18,3.8116e-21,0,0.31518,1.3075e-15,0.013212,0.012627,1,0.556,1,0.025,0
0.0089501,1.1276e-17,0.96942,0.000557,0,0.00046595,-2.0244e-19,3.8116e-21,0,0.3128,-2.7148e-16,0.013104,0.012532,1,0.557,1,0.025,0
0.0089001,1.1493e-17,0.97036,0.000558,0,0.00047659,-1.0681e-18,3.3881e-21,0,0.3105,-6.9085e-16,0.012999,0.012439,1,0.558,1,0.025,0
0.0088508,7.5623e-18,0.97125,0.000559,0,0.00048738,-5.1838e-19,3.8116e-21,0,0.30829,-3.3437e-16,0.012897,0.01235,1,0.559,1,0.025,0
0.0088021,5.5836e-18,0.9721,0.00056,0,0.00049833,-6.3527e-19,4.6587e-21,0,0.30616,-4.159e-16,0.012799,0.012264,1,0.56,1,0.025,0
0.0087542,8.5381e-18,0.97292,0.000561,0,0.00050944,-2.0329e-19,3.3881e-21,0,0.30411,-2.4893e-16,0.012704,0.012182,1,0.561,1,0.025,0
0.0087071,2.022e-17,0.9737,0.000562,0,0.0005207,-1.9363e-18,5.0822e-21,0,0.30215,-1.1328e-15,0.012613,0.012103,1,0.562,1,0.025,0
0.0086609,8.1315e-18,0.97445,0.000563,0,0.00053212,3.2374e-18,3.3881e-21,0,0.30027,1.321e-15,0.012525,0.012028,1,0.563,1,0.025,0
0.0086155,1.7591e-17,0.97516,0.000564,0,0.00054368,1.1858e-18,3.3881e-21,0,0.29849,3.6169e-16,0.012441,0.011956,1,0.564,1,0.025,0
0.0085711,2.3636e-17,0.97585,0.000565,0,0.00055539,-2.3683e-18,2.9646e-21,0,0.29679,-1.2802e-15,0.01236,0.011887,1,0.565,1,0.025,0
0.0088911,3.0385e-17,0.97618,0.000566,0,0.00058161,8.6736e-19,5.0822e-21,0,0.30711,7.8496e-17,0.012765,0.0123,1,0.566,1,0.025,0
0.0088192,2.2985e-17,0.97681,0.000567,0,0.00059235,-2.3683e-18,5.0822e-21,0,0.30464,-1.2256e-15,0.012654,0.012201,1,0.567,1,0.025,0
0.0087467,2.7376e-17,0.97744,0.000568,0,0.00060338,8.6906e-19,4.6587e-21,0,0.30218,9.1073e-17,0.012543,0.012102,1,0.568,1,0.025,0
0.0086772,1.7483e-17,0.97803,0.000569,0,0.00061464,2.6021e-18,2.9646e-21,0,0.29986,8.0968e-16,0.012437,0.012008,1,0.569,1,0.025,0
0.0086114,1.3227e-17,0.9786,0.00057,0,0.00062614,1.7364e-18,5.0822e-21,0,0.29772,5.5945e-16,0.012339,0.011922,1,0.57,1,0.025,0
0.0085495,1.8106e-17,0.97915,0.000571,0,0.00063786,1.7347e-18,5.9292e-21,0,0.29576,4.7358e-16,0.012247,0.011843,1,0.571,1,0.025,0
0.0088124,1.6263e-17,0.97941,0.000572,0,0.00066406,2.6021e-18,5.0822e-21,0,0.30444,7.7672e-16,0.012588,0.01219,1,0.572,1,0.025,0
0.0087346,1.1926e-17,0.97991,0.000573,0,0.00067505,2.8342e-18,3.8116e-21,0,0.30207,9.2678e-16,0.012481,0.012095,1,0.573,1,0.025,0
0.0086578,4.8247e-18,0.98041,0.000574,0,0.00068634,4.6587e-19,4.2352e-21,0,0.29977,1.0278e-16,0.012376,0.012003,1,0.574,1,0.025,0
0.0085854,1.6859e-17,0.98087,0.000575,0,0.00069789,1.7364e-18,5.9292e-21,0,0.29766,4.2024e-16,0.012279,0.011918,1,0.575,1,0.025,0
0.008817,2.0058e-17,0.9811,0.000576,0,0.000724,2.2006e-18,3.8116e-21,0,0.30547,6.0498e-16,0.012585,0.01223,1,0.576,1,0.025,0
0.0087341,1.3336e-17,0.98154,0.000577,0,0.00073498,-1.6941e-19,3.8116e-21,0,0.30312,-1.5482e-16,0.012479,0.012136,1,0.577,1,0.025,0
0.0086532,1.7808e-17,0.98196,0.000578,0,0.00074626,-1.2689e-18,4.6587e-21,0,0.30087,-5.5468e-16,0.012377,0.012045,1,0.578,1,0.025,0
0.0085776,3.0358e-17,0.98236,0.000579,0,0.00075782,2.3378e-19,5.0822e-21,0,0.29883,-1.7304e-16,0.012283,0.011963,1,0.579,1,0.025,0
0.0087849,1.5152e-17,0.98255,0.00058,0,0.00078391,2.6038e-18,4.2352e-21,0,0.306,6.5703e-16,0.012563,0.012249,1,0.58,1,0.025,0
0.0087029,2.8162e-17,0.98292,0.000581,0,0.00079499,3.3881e-21,4.2352e-21,0,0.30384,-2.4676e-16,0.012466,0.012163,1,0.581,1,0.025,0
0.0086234,2.8704e-17,0.98328,0.000582,0,0.00080637,-8.6736e-19,4.6587e-21,0,0.3018,-4.9873e-16,0.012372,0.012081,1,0.582,1,0.025,0
0.0085495,2.4069e-17,0.98363,0.000583,0,0.00081802,2.3378e-19,4.2352e-21,0,0.29998,-9.9096e-17,0.012288,0.012007,1,0.583,1,0.025,0
0.0087377,1.2008e-17,0.98379,0.000584,0,0.00084414,-1.711e-19,5.0822e-21,0,0.30667,-1.2685e-16,0.012549,0.012275,1,0.584,1,0.025,0
0.0086602,2.3392e-17,0.98411,0.000585,0,0.00085536,2.3378e-19,5.9292e-21,0,0.30481,-9.4759e-17,0.012464,0.0122,1,0.585,1,0.025,0
0.0085853,1.5179e-17,0.98441,0.000586,0,0.00086688,1.9668e-18,5.5057e-21,0,0.30307,4.2674e-16,0.012383,0.01213,1,0.586,1,0.025,0
0.008516,1.6995e-17,0.9847,0.000587,0,0.00087864,2.1989e-18,4.6587e-21,0,0.30154,4.7857e-16,0.012311,0.012068,1,0.587,1,0.025,0
0.0086893,1.6534e-17,0.98484,0.000588,0,0.0009048,-2.1362e-18,5.0822e-21,0,0.30788,-7.0343e-16,0.012558,0.012321,1,0.588,1,0.025,0
0.0086182,2.5072e-17,0.98511,0.000589,0,0.00091617,2.3209e-19,4.6587e-21,0,0.30636,-1.1926e-16,0.012487,0.01226,1,0.589,1,0.025,0
0.0085496,2.2714e-17,0.98536,0.00059,0,0.00092782,-2.7715e-18,5.0822e-21,0,0.30495,-8.6931e-16,0.01242,0.012203,1,0.59,1,0.025,0
0.0084865,2.0573e-17,0.98561,0.000591,0,0.00093969,1.3315e-18,5.0822e-21,0,0.30374,2.1988e-16,0.012362,0.012155,1,0.591,1,0.025,0
0.0086479,2.4395e-17,0.98573,0.000592,0,0.00096588,2.3209e-19,5.9292e-21,0,0.30982,-1.0799e-16,0.012599,0.012398,1,0.592,1,0.025,0
0.0085841,3.2282e-17,0.98595,0.000593,0,0.00097739,-1.2689e-18,5.9292e-21,0,0.30866,-5.0719e-16,0.012543,0.012351,1,0.593,1,0.025,0
0.0085228,2.4069e-17,0.98617,0.000594,0,0.00098913,-3.8726e-18,4.6587e-21,0,0.3076,-1.1161e-15,0.012491,0.012308,1,0.594,1,0.025,0
0.0084666,2.1359e-17,0.98637,0.000595,0,0.0010011,4.6417e-19,5.0822e-21,0,0.30672,1.301e-18,0.012446,0.012273,1,0.595,1,0.025,0
0.0086186,2.9382e-17,0.98648,0.000596,0,0.0010273,3.9353e-18,5.5057e-21,0,0.31261,7.5048e-16,0.012676,0.012508,1,0.596,1,0.025,0
0.0085626,3.0195e-17,0.98666,0.000597,0,0.0010389,-1.2689e-18,5.0822e-21,0,0.31179,-4.6664e-16,0.012634,0.012475,1,0.597,1,0.025,0
0.0085088,2.7539e-17,0.98684,0.000598,0,0.0010507,-6.3358e-19,5.5057e-21,0,0.31107,-3.2504e-16,0.012596,0.012446,1,0.598,1,0.025,0
0.0084598,2.7376e-17,0.98702,0.000599,0,0.0010627,-3.998e-19,6.3527e-21,0,0.31052,-2.5479e-16,0.012565,0.012423,1,0.599,1,0.025,0
0.0084154,1.8919e-17,0.98718,0.0006,0,0.0010749,4.6587e-19,5.5057e-21,0,0.31014,7.8063e-18,0.012541,0.012408,1,0.6,1,0.025,0
0.0085596,2.8081e-17,0.98726,0.000601,0,0.0011011,-1.6771e-19,5.0822e-21,0,0.3159,-1.8627e-16,0.012767,0.012638,1,0.601,1,0.025,0
0.008516,1.9787e-17,0.98741,0.000602,0,0.0011129,4.3385e-18,5.5057e-21,0,0.31558,8.0469e-16,0.012746,0.012625,1,0.602,1,0.025,0
0.0084743,1.7401e-17,0.98755,0.000603,0,0.0011249,-3.0019e-18,6.3527e-21,0,0.31534,-7.3184e-16,0.012728,0.012615,1,0.603,1,0.025,0
0.0084367,1.9732e-17,0.98769,0.000604,0,0.001137,-8.6736e-19,6.3527e-21,0,0.31525,-3.1919e-16,0.012716,0.012611,1,0.604,1,0.025,0
0.0084032,1.4339e-17,0.98782,0.000605,0,0.0011492,1.9668e-18,4.6587e-21,0,0.3153,2.9816e-16,0.012711,0.012613,1,0.605,1,0.025,0
0.0083736,1.461e-17,0.98794,0.000606,0,0.0011615,1.0994e-18,5.5057e-21,0,0.3155,1.3943e-16,0.01271,0.01262,1,0.606,1,0.025,0
0.0085114,1.9976e-17,0.988,0.000607,0,0.0011879,2.3209e-19,5.0822e-21,0,0.32118,-6.3968e-17,0.012934,0.012847,1,0.607,1,0.025,0
0.0084826,2.0925e-17,0.98812,0.000608,0,0.0011998,2.3209e-19,5.5057e-21,0,0.32142,-1.0213e-16,0.012936,0.012857,1,0.608,1,0.025,0
0.0084552,2.0247e-17,0.98822,0.000609,0,0.0012119,-1.2705e-18,3.8116e-21,0,0.32172,-3.5649e-16,0.012941,0.012868,1,0.609,1,0.025,0
0.0084311,1.8269e-17,0.98833,0.00061,0,0.001224,-8.6736e-19,4.6587e-21,0,0.32213,-2.871e-16,0.01295,0.012885,1,0.61,1,0.025,0
0.0084104,2.5804e-17,0.98842,0.000611,0,0.0012363,2.8359e-18,4.6587e-21,0,0.32267,4.146e-16,0.012964,0.012906,1,0.611,1,0.025,0
0.0083929,2.2579e-17,0.98851,0.000612,0,0.0012486,-1.2689e-18,5.0822e-21,0,0.32331,-3.4586e-16,0.012983,0.012931,1,0.612,1,0.025,0
0.0083784,1.7727e-17,0.9886,0.000613,0,0.0012609,4.6756e-19,5.0822e-21,0,0.32405,6.9389e-18,0.013007,0.012961,1,0.613,1,0.025,0
0.0083669,1.4474e-17,0.98868,0.000614,0,0.0012733,1.1011e-18,4.6587e-21,0,0.3249,1.4073e-16,0.013034,0.012994,1,0.614,1,0.025,0
0.0083582,2.0627e-17,0.98876,0.000615,0,0.0012858,-3.998e-19,4.6587e-21,0,0.32584,-1.867e-16,0.013066,0.013032,1,0.615,1,0.025,0
0.0083521,2.0979e-17,0.98883,0.000616,0,0.0012983,3.7049e-18,5.5057e-21,0,0.32687,5.8677e-16,0.013101,0.013072,1,0.616,1,0.025,0
0.0083484,1.5829e-17,0.9889,0.000617,0,0.0013108,2.3378e-19,4.6587e-21,0,0.32798,-4.9873e-17,0.013139,0.013117,1,0.617,1,0.025,0
0.008347,2.144e-17,0.98897,0.000618,0,0.0013233,-1.6602e-19,4.6587e-21,0,0.32916,-1.1254e-16,0.013181,0.013164,1,0.618,1,0.025,0
0.0083339,2.4151e-17,0.98904,0.000619,0,0.0013358,3.068e-18,3.8116e-21,0,0.33003,4.5016e-16,0.013209,0.013198,1,0.619,1,0.025,0
0.0083234,1.3634e-17,0.98911,0.00062,0,0.0013484,-2.5377e-18,3.3881e-21,0,0.33096,-5.2974e-16,0.013241,0.013235,1,0.62,1,0.025,0
0.008315,2.0139e-17,0.98918,0.000621,0,0.0013611,-1.6941e-19,3.8116e-21,0,0.33194,-1.0473e-16,0.013275,0.013274,1,0.621,1,0.025,0
0.0083086,1.3742e-17,0.98924,0.000622,0,0.0013737,-2.5394e-18,4.2352e-21,0,0.33296,-5.2302e-16,0.013311,0.013315,1,0.622,1,0.025,0
0.0082921,2.3337e-17,0.9893,0.000623,0,0.0013864,-8.0468e-19,4.6587e-21,0,0.33386,-2.2226e-16,0.013343,0.013351,1,0.623,1,0.025,0
0.0082774,1.2306e-17,0.98936,0.000624,0,0.0013992,-2.7715e-18,4.6587e-21,0,0.33499,-5.5489e-16,0.013383,0.013396,1,0.624,1,0.025,0
0.0082528,2.3229e-17,0.98942,0.000625,0,0.0014121,2.4327e-18,3.8116e-21,0,0.3362,3.3372e-16,0.013426,0.013444,1,0.625,1,0.025,0
0.0083038,2.4367e-17,0.98949,0.000626,0,0.0014386,2.2006e-18,4.2352e-21,0,0.34123,2.7821e-16,0.01362,0.013645,1,0.626,1,0.025,0
0.0083426,1.7835e-17,0.98954,0.000627,0,0.001465,3.7032e-18,2.9646e-21,0,0.3471,5.4839e-16,0.013845,0.013879,1,0.627,1,0.025,0
0.0082857,2.1223e-17,0.98959,0.000628,0,0.0014776,1.9685e-18,5.0822e-21,0,0.34989,2.691e-16,0.013947,0.01399,1,0.628,1,0.025,0
0.0082807,1.7564e-17,0.98965,0.000629,0,0.0015041,-1.6771e-19,4.2352e-21,0,0.3562,-1.0126e-16,0.014185,0.014242,1,0.629,1,0.025,0
0.0082483,1.7347e-17,0.9897,0.00063,0,0.0015305,-1.711e-19,4.2352e-21,0,0.36302,-9.9963e-17,0.014443,0.014514,1,0.63,1,0.025,0
0.00818,1.5721e-17,0.98974,0.000631,0,0.0015569,-1.2705e-18,4.6587e-21,0,0.37025,-2.6628e-16,0.014713,0.014802,1,0.631,1,0.025,0
0.0080674,1.5721e-17,0.98978,0.000632,0,0.0015834,-1.0368e-18,4.2352e-21,0,0.37768,-2.1619e-16,0.014988,0.015099,1,0.632,1,0.025,0
0.0079021,1.6046e-17,0.98981,0.000633,0,0.0016101,-1.6737e-18,3.8116e-21,0,0.38501,-2.7409e-16,0.015254,0.015391,1,0.633,1,0.025,0
0.007676,2.3256e-17,0.98984,0.000634,0,0.0016369,3.9353e-18,3.3881e-21,0,0.39176,6.2081e-16,0.015494,0.01566,1,0.634,1,0.025,0
0.007382,1.751e-17,0.98987,0.000635,0,0.0016641,2.2023e-18,3.8116e-21,0,0.39727,3.5475e-16,0.015681,0.015879,1,0.635,1,0.025,0
0.0070149,1.6968e-17,0.98989,0.000636,0,0.0016917,-2.5377e-18,4.2352e-21,0,0.40067,-3.8945e-16,0.015781,0.016013,1,0.636,1,0.025,0
0.0065723,1.4989e-17,0.98991,0.000637,0,0.0017198,-1.4366e-18,3.3881e-21,0,0.40083,-1.9364e-16,0.01575,0.016018,1,0.637,1,0.025,0
0.0060554,9.8933e-18,0.98992,0.000638,0,0.0017486,-1.9024e-18,4.2352e-21,0,0.39643,-2.1207e-16,0.015539,0.015841,1,0.638,1,0.025,0
0.0054702,9.2428e-18,0.98994,0.000639,0,0.0017781,2.4361e-18,4.6587e-21,0,0.38607,4.6534e-16,0.015096,0.015426,1,0.639,1,0.025,0
0.0048285,6.8847e-18,0.98995,0.00064,0,0.0018084,2.2023e-18,4.6587e-21,0,0.36842,4.1243e-16,0.014371,0.014719,1,0.64,1,0.025,0
0.0041481,8.9989e-18,0.98996,0.000641,0,0.0018397,1.8008e-18,5.0822e-21,0,0.34255,3.1713e-16,0.013333,0.013684,1,0.641,1,0.025,0
0.0034527,6.844e-18,0.98997,0.000642,0,0.001872,6.9965e-19,4.6587e-21,0,0.30831,1.8052e-16,0.011978,0.012316,1,0.642,1,0.025,0
0.0027708,1.8906e-18,0.98997,0.000643,0,0.0019053,3.3034e-18,5.5057e-21,0,0.26669,4.4192e-16,0.010346,0.010653,1,0.643,1,0.025,0
0.0021329,1.5585e-18,0.98998,0.000644,0,0.0019397,2.431e-18,5.5057e-21,0,0.21998,2.4731e-16,0.0085278,0.0087867,1,0.644,1,0.025,0
0.0015677,-1.2536e-18,0.98999,0.000645,0,0.0019751,-1.6941e-19,6.3527e-21,0,0.17169,-1.3254e-16,0.0066564,0.0068577,1,0.645,1,0.025,0
0.0010969,5.0348e-18,0.98999,0.000646,0,0.0020115,1.1638e-18,5.5057e-21,0,0.12589,7.1476e-17,0.0048868,0.0050288,1,0.646,1,0.025,0
0.00073107,1.7517e-18,0.98999,0.000647,0,0.0020488,1.8008e-18,5.5057e-21,0,0.086341,9.7036e-17,0.0033601,0.0034492,1,0.647,1,0.025,0
0.0004674,1.3281e-18,0.99,0.000648,0,0.0020868,5.0365e-18,4.2352e-21,0,0.055448,3.5459e-16,0.0021669,0.0022154,1,0.648,1,0.025,0
0.00029138,1.6856e-19,0.99,0.000649,0,0.0021253,2.0346e-18,5.5057e-21,0,0.033739,-8.4818e-17,0.0013261,0.0013483,1,0.649,1,0.025,0
0.00018168,1.1384e-18,0.99,0.00065,0,0.0021643,4.1725e-18,5.0822e-21,0,0.019994,1.4735e-16,0.00079116,0.00079922,1,0.65,1,0.025,0
0.00011633,-2.2192e-18,0.99,0.000651,0,0.0022036,-1.4383e-18,5.0822e-21,0,0.012027,-2.7061e-16,0.00047895,0.00048086,1,0.651,1,0.025,0
7.753e-05,-6.3718e-19,0.99,0.000652,0,0.0022431,-1.4349e-18,4.2352e-21,0,0.0076183,-8.246e-17,0.00030473,0.00030465,1,0.652,1,0.025,0
5.3474e-05,1.0279e-18,0.99,0.000653,0,0.0022826,-2.9375e-18,5.9292e-21,0,0.0051234,-6.9547e-17,0.00020534,0.0002049,1,0.653,1,0.025,0
3.7556e-05,3.9705e-20,0.99,0.000654,0,0.0023223,9.3343e-19,6.3527e-21,0,0.0035852,1.0793e-16,0.00014375,0.00014339,1,0.654,1,0.025,0
2.6481e-05,-1.5077e-19,0.99,0.000655,0,0.002362,2.0329e-18,4.6587e-21,0,0.0025436,2.7028e-17,0.00010198,0.00010173,1,0.655,1,0.025,0
1.8621e-05,8.8499e-19,0.99,0.000656,0,0.0024018,-1.0503e-19,3.3881e-21,0,0.0017986,-2.0639e-17,7.2088e-05,7.1932e-05,1,0.656,1,0.025,0
1.3063e-05,6.4873e-18,0.99,0.000657,0,0.0024416,-6.5169e-17,4.6587e-21,0,0.0012574,-8.0336e-16,5.038e-05,5.0286e-05,1,0.657,1,0.025,0
9.2003e-06,4.106e-19,0.99,0.000658,0,0.0024815,-6.8405e-17,5.9292e-21,0,0.00086718,-7.6409e-17,3.4735e-05,3.468e-05,1,0.658,1,0.025,0
6.5842e-06,1.3392e-18,0.99,0.000659,0,0.0025214,-9.2443e-17,4.6587e-21,0,0.00059152,-1.6538e-16,2.3686e-05,2.3656e-05,1,0.659,1,0.025,0
4.8682e-06,5.6259e-18,0.99,0.00066,0,0.0025613,-2.0477e-16,4.6587e-21,0,0.00040233,-5.268e-16,1.6105e-05,1.609e-05,1,0.66,1,0.025,0
3.7838e-06,-4.4575e-19,0.99,0.000661,0,0.0026013,-1.9876e-16,5.0822e-21,0,0.00027709,4.4223e-18,1.1089e-05,1.1081e-05,1,0.661,1,0.025,0
3.1271e-06,-3.1509e-18,0.99,0.000662,0,0.0026412,-1.3163e-16,5.0822e-21,0,0.00019765,1.7459e-16,7.9082e-06,7.904e-06,1,0.662,1,0.025,0
2.7475e-06,3.8664e-19,0.99,0.000663,0,0.0026812,-1.3804e-16,3.8116e-21,0,0.00014963,-1.0979e-17,5.9856e-06,5.9835e-06,1,0.663,1,0.025,0
2.5392e-06,-9.1248e-20,0.99,0.000664,0,0.0027211,-1.3827e-16,5.0822e-21,0,0.00012211,-5.4329e-19,4.884e-06,4.883e-06,1,0.664,1,0.025,0
2.4309e-06,-9.4153e-20,0.99,0.000665,0,0.0027611,-1.3977e-16,4.6587e-21,0,0.00010722,-2.7372e-18,4.2883e-06,4.2879e-06,1,0.665,1,0.025,0
2.3779e-06,-1.092e-18,0.99,0.000666,0,0.0028011,-1.121e-16,4.6587e-21,0,9.9662e-05,4.5233e-17,3.9856e-06,3.9854e-06,1,0.666,1,0.025,0
2.3534e-06,2.4894e-17,0.99,0.000667,0,0.002841,-7.4869e-16,4.6587e-21,0,9.6065e-05,-1.0163e-15,3.8417e-06,3.8416e-06,1,0.667,1,0.025,0
2.3429e-06,-1.4897e-17,0.99,0.000668,0,0.002881,-4.0842e-16,4.2352e-21,0,9.4469e-05,5.2768e-16,3.7778e-06,3.7778e-06,1,0.668,1,0.025,0
2.3386e-06,5.4587e-20,0.99,0.000669,0,0.002921,-3.9912e-16,3.8116e-21,0,9.3811e-05,1.9968e-17,3.7515e-06,3.7515e-06,1,0.669,1,0.025,0
2.3369e-06,1.7153e-18,0.99,0.00067,0,0.0029609,-4.4378e-16,4.6587e-21,0,9.356e-05,-7.0038e-17,3.7414e-06,3.7414e-06,1,0.67,1,0.025,0
2.3363e-06,-1.2406e-19,0.99,0.000671,0,0.0030009,-4.4702e-16,4.2352e-21,0,9.347e-05,-5.789e-18,3.7378e-06,3.7378e-06,1,0.671,1,0.025,0
2.336e-06,1.5462e-19,0.99,0.000672,0,0.0030409,-4.5436e-16,4.2352e-21,0,9.3441e-05,-1.1594e-17,3.7367e-06,3.7367e-06,1,0.672,1,0.025,0
2.3359e-06,1.5143e-19,0.99,0.000673,0,0.0030808,-4.591e-16,4.2352e-21,0,9.3431e-05,-7.5628e-18,3.7363e-06,3.7363e-06,1,0.673,1,0.025,0
2.3358e-06,2.3181e-20,0.99,0.000674,0,0.0031208,-4.6014e-16,4.2352e-21,0,9.3428e-05,-1.7059e-18,3.7361e-06,3.7361e-06,1,0.674,1,0.025,0
2.3358e-06,5.249e-20,0.99,0.000675,0,0.0031607,-4.58e-16,4.2352e-21,0,9.3426e-05,3.3413e-18,3.7361e-06,3.7361e-06,1,0.675,1,0.025,0
2.3357e-06,1.1572e-17,0.99,0.000676,0,0.0032007,-7.6119e-16,3.8116e-21,0,9.3425e-05,-4.7637e-16,3.736e-06,3.736e-06,1,0.676,1,0.025,0
2.3357e-06,-4.7811e-19,0.99,0.000677,0,0.0032406,-7.6496e-16,4.2352e-21,0,9.3424e-05,-1.0678e-17,3.736e-06,3.736e-06,1,0.677,1,0.025,0
2.3357e-06,6.8987e-19,0.99,0.000678,0,0.0032806,-7.8408e-16,5.0822e-21,0,9.3423e-05,-3.0162e-17,3.736e-06,3.736e-06,1,0.678,1,0.025,0
2.3356e-06,3.979e-18,0.99,0.000679,0,0.0033206,-8.9491e-16,3.3881e-21,0,9.3422e-05,-1.7445e-16,3.7359e-06,3.7359e-06,1,0.679,1,0.025,0
2.3356e-06,2.9765e-20,0.99,0.00068,0,0.0033605,-9.0139e-16,4.6587e-21,0,9.3422e-05,-1.1917e-17,3.7359e-06,3.7359e-06,1,0.68,1,0.025,0
2.3356e-06,-1.3666e-19,0.99,0.000681,0,0.0034005,-9.0723e-16,5.0822e-21,0,9.3421e-05,-9.2944e-18,3.7359e-06,3.7359e-06,1,0.681,1,0.025,0
2.3356e-06,-1.0029e-19,0.99,0.000682,0,0.0034404,-9.0122e-16,3.8116e-21,0,9.342e-05,9.3496e-18,3.7358e-06,3.7358e-06,1,0.682,1,0.025,0
2.3356e-06,-3.0034e-19,0.99,0.000683,0,0.0034804,-8.9908e-16,4.6587e-21,0,9.342e-05,3.4519e-18,3.7358e-06,3.7358e-06,1,0.683,1,0.025,0
2.3355e-06,2.0291e-19,0.99,0.000684,0,0.0035203,-9.0168e-16,4.6587e-21,0,9.3419e-05,-4.0542e-18,3.7358e-06,3.7358e-06,1,0.684,1,0.025,0
2.3355e-06,-1.1468e-19,0.99,0.000685,0,0.0035603,-9.0105e-16,5.9292e-21,0,9.3418e-05,9.5719e-19,3.7358e-06,3.7358e-06,1,0.685,1,0.025,0
2.3355e-06,1.0803e-18,0.99,0.000686,0,0.0036002,-9.2572e-16,4.6587e-21,0,9.3418e-05,-3.8758e-17,3.7357e-06,3.7357e-06,1,0.686,1,0.025,0
2.3355e-06,1.574e-19,0.99,0.000687,0,0.0036402,-9.326e-16,4.2352e-21,0,9.3417e-05,-1.1193e-17,3.7357e-06,3.7357e-06,1,0.687,1,0.025,0
2.3355e-06,-6.1337e-19,0.99,0.000688,0,0.0036801,-9.2468e-16,5.5057e-21,0,9.3417e-05,1.2324e-17,3.7357e-06,3.7357e-06,1,0.688,1,0.025,0
2.3355e-06,4.2815e-20,0.99,0.000689,0,0.0037201,-9.1694e-16,3.8116e-21,0,9.3416e-05,1.2292e-17,3.7357e-06,3.7357e-06,1,0.689,1,0.025,0
2.3355e-06,-1.3058e-19,0.99,0.00069,0,0.0037601,-9.163e-16,4.2352e-21,0,9.3416e-05,1.1206e-18,3.7357e-06,3.7357e-06,1,0.69,1,0.025,0
2.3355e-06,-2.9612e-19,0.99,0.000691,0,0.0038,-9.1417e-16,4.6587e-21,0,9.3415e-05,3.3696e-18,3.7356e-06,3.7356e-06,1,0.691,1,0.025,0
2.3355e-06,-3.3608e-19,0.99,0.000692,0,0.00384,-9.0128e-16,3.8116e-21,0,9.3415e-05,2.0282e-17,3.7356e-06,3.7356e-06,1,0.692,1,0.025,0
2.3355e-06,-2.0223e-20,0.99,0.000693,0,0.0038799,-8.9955e-16,3.8116e-21,0,9.3415e-05,2.9286e-18,3.7356e-06,3.7356e-06,1,0.693,1,0.025,0
2.3354e-06,-5.0101e-20,0.99,0.000694,0,0.0039199,-8.9931e-16,4.2352e-21,0,9.3414e-05,3.9448e-19,3.7356e-06,3.7356e-06,1,0.694,1,0.025,0
2.3354e-06,-3.1287e-20,0.99,0.000695,0,0.0039598,-8.9828e-16,4.6587e-21,0,9.3414e-05,1.6342e-18,3.7356e-06,3.7356e-06,1,0.695,1,0.025,0
2.3354e-06,2.6774e-19,0.99,0.000696,0,0.0039998,-9.0365e-16,5.0822e-21,0,9.3413e-05,-8.4285e-18,3.7356e-06,3.7356e-06,1,0.696,1,0.025,0
2.3354e-06,-3.7475e-20,0.99,0.000697,0,0.0040397,-9.0452e-16,4.6587e-21,0,9.3413e-05,-1.4472e-18,3.7356e-06,3.7356e-06,1,0.697,1,0.025,0
2.3354e-06,-3.9301e-20,0.99,0.000698,0,0.0040797,-8.9608e-16,4.2352e-21,0,9.3413e-05,1.3249e-17,3.7355e-06,3.7355e-06,1,0.698,1,0.025,0
2.3354e-06,-8.8209e-19,0.99,0.000699,0,0.0041196,-8.7331e-16,5.0822e-21,0,9.3413e-05,3.5907e-17,3.7355e-06,3.7355e-06,1,0.699,1,0.025,0
2.3354e-06,1.1027e-19,0.99,0.0007,0,0.0041596,-8.7267e-16,4.6587e-21,0,9.3412e-05,1.3568e-18,3.7355e-06,3.7355e-06,1,0.7,1,0.025,0
2.3354e-06,-2.2446e-20,0.99,0.000701,0,0.0041995,-8.7221e-16,4.6587e-21,0,9.3412e-05,7.4395e-19,3.7355e-06,3.7355e-06,1,0.701,1,0.025,0
2.3354e-06,1.5981e-20,0.99,0.000702,0,0.0042395,-8.6897e-16,4.2352e-21,0,9.3412e-05,5.0939e-18,3.7355e-06,3.7355e-06,1,0.702,1,0.025,0
2.3354e-06,-7.5141e-20,0.99,0.000703,0,0.0042794,-8.7244e-16,5.0822e-21,0,9.3412e-05,-5.4007e-18,3.7355e-06,3.7355e-06,1,0.703,1,0.025,0
2.3354e-06,2.0514e-20,0.99,0.000704,0,0.0043194,-8.7117e-16,4.6587e-21,0,9.3411e-05,1.9414e-18,3.7355e-06,3.7355e-06,1,0.704,1,0.025,0
2.3354e-06,-4.4502e-20,0.99,0.000705,0,0.0043593,-8.7117e-16,3.8116e-21,0,9.3411e-05,1.9416e-20,3.7355e-06,3.7355e-06,1,0.705,1,0.025,0
2.3354e-06,-4.9896e-21,0.99,0.000706,0,0.0043993,-8.6793e-16,4.6587e-21,0,9.3411e-05,5.0867e-18,3.7355e-06,3.7355e-06,1,0.706,1,0.025,0
2.3354e-06,-8.8608e-21,0.99,0.000707,0,0.0044392,-8.6383e-16,4.6587e-21,0,9.3411e-05,6.5002e-18,3.7355e-06,3.7355e-06,1,0.707,1,0.025,0
2.3354e-06,-7.489e-20,0.99,0.000708,0,0.0044792,-8.7094e-16,3.8116e-21,0,9.3411e-05,-1.1106e-17,3.7355e-06,3.7355e-06,1,0.708,1,0.025,0
2.3354e-06,7.5743e-20,0.99,0.000709,0,0.0045191,-8.6533e-16,4.6587e-21,0,9.341e-05,8.699e-18,3.7354e-06,3.7354e-06,1,0.709,1,0.025,0
2.3354e-06,-1.3036e-20,0.99,0.00071,0,0.0045591,-8.7007e-16,4.6587e-21,0,9.341e-05,-7.3601e-18,3.7354e-06,3.7354e-06,1,0.71,1,0.025,0
2.3354e-06,-4.969e-20,0.99,0.000711,0,0.004599,-8.6447e-16,4.2352e-21,0,9.341e-05,8.7364e-18,3.7354e-06,3.7354e-06,1,0.711,1,0.025,0
2.3354e-06,3.0056e-20,0.99,0.000712,0,0.004639,-8.621e-16,4.2352e-21,0,9.341e-05,3.8109e-18,3.7354e-06,3.7354e-06,1,0.712,1,0.025,0
2.3354e-06,-4.4185e-20,0.99,0.000713,0,0.0046789,-8.7031e-16,5.5057e-21,0,9.341e-05,-1.2861e-17,3.7354e-06,3.7354e-06,1,0.713,1,0.025,0
2.3354e-06,2.7039e-20,0.99,0.000714,0,0.0047189,-8.5886e-16,4.2352e-21,0,9.341e-05,1.7857e-17,3.7354e-06,3.7354e-06,1,0.714,1,0.025,0
2.3354e-06,-3.1995e-20,0.99,0.000715,0,0.0047588,-8.6296e-16,5.5057e-21,0,9.3409e-05,-6.2708e-18,3.7354e-06,3.7354e-06,1,0.715,1,0.025,0
2.3354e-06,-1.0952e-20,0.99,0.000716,0,0.0047988,-8.6793e-16,4.6587e-21,0,9.3409e-05,-7.875e-18,3.7354e-06,3.7354e-06,1,0.716,1,0.025,0
2.3354e-06,-9.5622e-21,0.99,0.000717,0,0.0048387,-8.677e-16,3.3881e-21,0,9.3409e-05,2.8644e-19,3.7354e-06,3.7354e-06,1,0.717,1,0.025,0
2.3354e-06,-5.4925e-21,0.99,0.000718,0,0.0048787,-8.636e-16,3.3881e-21,0,9.3409e-05,6.4522e-18,3.7354e-06,3.7354e-06,1,0.718,1,0.025,0
2.3354e-06,-4.5263e-21,0.99,0.000719,0,0.0049186,-8.6793e-16,3.3881e-21,0,9.3409e-05,-6.75e-18,3.7354e-06,3.7354e-06,1,0.719,1,0.025,0
2.3354e-06,3.1148e-20,0.99,0.00072,0,0.0049586,-8.6146e-16,4.2352e-21,0,9.3409e-05,1.0105e-17,3.7354e-06,3.7354e-06,1,0.72,1,0.025,0
2.3354e-06,3.5734e-20,0.99,0.000721,0,0.0049985,-8.5862e-16,4.6587e-21,0,9.3409e-05,4.555e-18,3.7354e-06,3.7354e-06,1,0.721,1,0.025,0
2.3354e-06,6.3111e-20,0.99,0.000722,0,0.0050385,-8.61e-16,5.5057e-21,0,9.3409e-05,-3.678e-18,3.7354e-06,3.7354e-06,1,0.722,1,0.025,0
2.3353e-06,-3.8699e-20,0.99,0.000723,0,0.0050784,-8.6446e-16,5.0822e-21,0,9.3409e-05,-5.4884e-18,3.7354e-06,3.7354e-06,1,0.723,1,0.025,0
2.3353e-06,3.4741e-19,0.99,0.000724,0,0.0051184,-8.7134e-16,4.6587e-21,0,9.3408e-05,-1.086e-17,3.7354e-06,3.7354e-06,1,0.724,1,0.025,0
2.3353e-06,1.5064e-19,0.99,0.000725,0,0.0051583,-8.7151e-16,4.6587e-21,0,9.3408e-05,-3.7594e-19,3.7354e-06,3.7354e-06,1,0.725,1,0.025,0
2.3353e-06,-1.5809e-20,0.99,0.000726,0,0.0051983,-8.7064e-16,3.3881e-21,0,9.3408e-05,1.3592e-18,3.7354e-06,3.7354e-06,1,0.726,1,0.025,0
2.3353e-06,1.8846e-20,0.99,0.000727,0,0.0052382,-8.7174e-16,4.2352e-21,0,9.3408e-05,-1.7145e-18,3.7354e-06,3.7354e-06,1,0.727,1,0.025,0
2.3353e-06,3.564e-19,0.99,0.000728,0,0.0052782,-8.87e-16,4.2352e-21,0,9.3408e-05,-2.3989e-17,3.7354e-06,3.7354e-06,1,0.728,1,0.025,0
2.3353e-06,2.9626e-20,0.99,0.000729,0,0.0053181,-8.829e-16,5.0822e-21,0,9.3408e-05,6.2095e-18,3.7354e-06,3.7354e-06,1,0.729,1,0.025,0
2.3353e-06,8.8072e-19,0.99,0.00073,0,0.0053581,-9.1237e-16,3.3881e-21,0,9.3408e-05,-4.6251e-17,3.7353e-06,3.7353e-06,1,0.73,1,0.025,0
2.3353e-06,2.9335e-20,0.99,0.000731,0,0.005398,-9.089e-16,3.8116e-21,0,9.3408e-05,4.9891e-18,3.7353e-06,3.7353e-06,1,0.731,1,0.025,0
2.3353e-06,-4.5468e-20,0.99,0.000732,0,0.005438,-9.0866e-16,4.2352e-21,0,9.3408e-05,4.1508e-19,3.7353e-06,3.7353e-06,1,0.732,1,0.025,0
2.3353e-06,2.8186e-19,0.99,0.000733,0,0.0054779,-9.1404e-16,4.6587e-21,0,9.3408e-05,-8.4407e-18,3.7353e-06,3.7353e-06,1,0.733,1,0.025,0
2.3353e-06,-4.0188e-20,0.99,0.000734,0,0.0055179,-9.1317e-16,5.5057e-21,0,9.3408e-05,1.2785e-18,3.7353e-06,3.7353e-06,1,0.734,1,0.025,0
2.3353e-06,1.2465e-19,0.99,0.000735,0,0.0055578,-9.1514e-16,4.2352e-21,0,9.3408e-05,-3.0782e-18,3.7353e-06,3.7353e-06,1,0.735,1,0.025,0
2.3353e-06,7.3255e-21,0.99,0.000736,0,0.0055978,-9.1705e-16,5.5057e-21,0,9.3407e-05,-3.0239e-18,3.7353e-06,3.7353e-06,1,0.736,1,0.025,0
2.3353e-06,7.6299e-21,0.99,0.000737,0,0.0056377,-9.1815e-16,4.2352e-21,0,9.3407e-05,-1.7583e-18,3.7353e-06,3.7353e-06,1,0.737,1,0.025,0
2.3353e-06,-5.2397e-20,0.99,0.000738,0,0.0056777,-9.1792e-16,5.0822e-21,0,9.3407e-05,3.4761e-19,3.7353e-06,3.7353e-06,1,0.738,1,0.025,0
2.3353e-06,8.4487e-19,0.99,0.000739,0,0.0057176,-9.4132e-16,5.5057e-21,0,9.3407e-05,-3.6769e-17,3.7353e-06,3.7353e-06,1,0.739,1,0.025,0
2.3353e-06,-1.2344e-18,0.99,0.00074,0,0.0057576,-9.0029e-16,5.9292e-21,0,9.3407e-05,6.41e-17,3.7353e-06,3.7353e-06,1,0.74,1,0.025,0
2.3353e-06,-9.6932e-20,0.99,0.000741,0,0.0057975,-9.0676e-16,5.5057e-21,0,9.3407e-05,-9.5319e-18,3.7353e-06,3.7353e-06,1,0.741,1,0.025,0
2.3353e-06,-4.169e-20,0.99,0.000742,0,0.0058375,-9.0116e-16,3.8116e-21,0,9.3407e-05,8.7147e-18,3.7353e-06,3.7353e-06,1,0.742,1,0.025,0
2.3353e-06,-3.3865e-19,0.99,0.000743,0,0.0058774,-8.9601e-16,3.8116e-21,0,9.3407e-05,8.1668e-18,3.7353e-06,3.7353e-06,1,0.743,1,0.025,0
2.3353e-06,-3.0436e-19,0.99,0.000744,0,0.0059174,-8.7943e-16,5.5057e-21,0,9.3407e-05,2.6147e-17,3.7353e-06,3.7353e-06,1,0.744,1,0.025,0
2.3353e-06,-2.9474e-20,0.99,0.000745,0,0.0059573,-8.8463e-16,3.3881e-21,0,9.3407e-05,-7.916e-18,3.7353e-06,3.7353e-06,1,0.745,1,0.025,0
2.3353e-06,7.3288e-20,0.99,0.000746,0,0.0059973,-8.7879e-16,5.0822e-21,0,9.3407e-05,9.096e-18,3.7353e-06,3.7353e-06,1,0.746,1,0.025,0
2.3353e-06,-1.4909e-20,0.99,0.000747,0,0.0060372,-8.8313e-16,5.0822e-21,0,9.3407e-05,-6.7236e-18,3.7353e-06,3.7353e-06,1,0.747,1,0.025,0
2.3353e-06,1.2289e-20,0.99,0.000748,0,0.0060772,-8.8203e-16,3.3881e-21,0,9.3407e-05,1.6609e-18,3.7353e-06,3.7353e-06,1,0.748,1,0.025,0
2.3353e-06,1.5981e-20,0.99,0.000749,0,0.0061171,-8.7879e-16,4.6587e-21,0,9.3407e-05,5.1031e-18,3.7353e-06,3.7353e-06,1,0.749,1,0.025,0
2.3353e-06,2.9779e-21,0.99,0.00075,0,0.0061571,-8.8289e-16,5.9292e-21,0,9.3407e-05,-6.3983e-18,3.7353e-06,3.7353e-06,1,0.75,1,0.025,0
2.3353e-06,4.8777e-20,0.99,0.000751,0,0.006197,-8.8029e-16,4.6587e-21,0,9.3407e-05,4.0248e-18,3.7353e-06,3.7353e-06,1,0.751,1,0.025,0
2.3353e-06,-4.4747e-20,0.99,0.000752,0,0.006237,-8.8203e-16,4.6587e-21,0,9.3407e-05,-2.6856e-18,3.7353e-06,3.7353e-06,1,0.752,1,0.025,0
2.3353e-06,6.2535e-21,0.99,0.000753,0,0.0062769,-8.8266e-16,3.8116e-21,0,9.3407e-05,-1.0246e-18,3.7353e-06,3.7353e-06,1,0.753,1,0.025,0
2.3353e-06,2.9487e-20,0.99,0.000754,0,0.0063169,-8.803e-16,4.6587e-21,0,9.3407e-05,3.7133e-18,3.7353e-06,3.7353e-06,1,0.754,1,0.025,0
2.3353e-06,3.8295e-20,0.99,0.000755,0,0.0063568,-8.8006e-16,5.5057e-21,0,9.3407e-05,4.0233e-19,3.7353e-06,3.7353e-06,1,0.755,1,0.025,0
2.3353e-06,-4.7421e-20,0.99,0.000756,0,0.0063968,-8.8029e-16,4.6587e-21,0,9.3407e-05,-3.6117e-19,3.7353e-06,3.7353e-06,1,0.756,1,0.025,0
2.3353e-06,5.2053e-20,0.99,0.000757,0,0.0064367,-8.7706e-16,4.2352e-21,0,9.3407e-05,5.0829e-18,3.7353e-06,3.7353e-06,1,0.757,1,0.025,0
2.3353e-06,-1.001e-19,0.99,0.000758,0,0.0064767,-8.8243e-16,5.9292e-21,0,9.3406e-05,-8.394e-18,3.7353e-06,3.7353e-06,1,0.758,1,0.025,0
2.3353e-06,1.0576e-19,0.99,0.000759,0,0.0065166,-8.8266e-16,4.6587e-21,0,9.3406e-05,-4.4913e-19,3.7353e-06,3.7353e-06,1,0.759,1,0.025,0
2.3353e-06,-3.3703e-20,0.99,0.00076,0,0.0065566,-8.7683e-16,3.8116e-21,0,9.3406e-05,9.1707e-18,3.7353e-06,3.7353e-06,1,0.76,1,0.025,0
2.3353e-06,-5.918e-20,0.99,0.000761,0,0.0065965,-8.7943e-16,5.0822e-21,0,9.3406e-05,-3.997e-18,3.7353e-06,3.7353e-06,1,0.761,1,0.025,0
2.3353e-06,1.1749e-19,0.99,0.000762,0,0.0066365,-8.7833e-16,4.6587e-21,0,9.3406e-05,1.6881e-18,3.7353e-06,3.7353e-06,1,0.762,1,0.025,0
2.3353e-06,-8.962e-20,0.99,0.000763,0,0.0066764,-8.8029e-16,4.6587e-21,0,9.3406e-05,-3.0741e-18,3.7353e-06,3.7353e-06,1,0.763,1,0.025,0
2.3353e-06,1.6597e-20,0.99,0.000764,0,0.0067164,-8.8116e-16,4.6587e-21,0,9.3406e-05,-1.3937e-18,3.7353e-06,3.7353e-06,1,0.764,1,0.025,0
2.3353e-06,6.4613e-20,0.99,0.000765,0,0.0067563,-8.7446e-16,4.6587e-21,0,9.3406e-05,1.0524e-17,3.7353e-06,3.7353e-06,1,0.765,1,0.025,0
2.3353e-06,-5.0882e-20,0.99,0.000766,0,0.0067962,-8.818e-16,4.2352e-21,0,9.3406e-05,-1.1431e-17,3.7353e-06,3.7353e-06,1,0.766,1,0.025,0
2.3353e-06,7.1184e-20,0.99,0.000767,0,0.0068362,-8.8006e-16,4.6587e-21,0,9.3406e-05,2.6115e-18,3.7353e-06,3.7353e-06,1,0.767,1,0.025,0
2.3353e-06,-3.5e-20,0.99,0.000768,0,0.0068761,-8.8156e-16,4.6587e-21,0,9.3406e-05,-2.3345e-18,3.7353e-06,3.7353e-06,1,0.768,1,0.025,0
2.3353e-06,-4.296e-20,0.99,0.000769,0,0.0069161,-8.8203e-16,4.2352e-21,0,9.3406e-05,-7.5373e-19,3.7353e-06,3.7353e-06,1,0.769,1,0.025,0
2.3353e-06,-4.4906e-20,0.99,0.00077,0,0.006956,-8.7919e-16,3.8116e-21,0,9.3406e-05,4.4464e-18,3.7353e-06,3.7353e-06,1,0.77,1,0.025,0
2.3353e-06,7.5518e-20,0.99,0.000771,0,0.006996,-8.8243e-16,3.8116e-21,0,9.3406e-05,-5.042e-18,3.7353e-06,3.7353e-06,1,0.771,1,0.025,0
2.3353e-06,-5.2145e-21,0.99,0.000772,0,0.0070359,-8.8243e-16,4.2352e-21,0,9.3406e-05,-5.0418e-20,3.7353e-06,3.7353e-06,1,0.772,1,0.025,0
2.3353e-06,-1.792e-20,0.99,0.000773,0,0.0070759,-8.807e-16,3.8116e-21,0,9.3406e-05,2.7253e-18,3.7353e-06,3.7353e-06,1,0.773,1,0.025,0
2.3353e-06,3.3636e-20,0.99,0.000774,0,0.0071158,-8.7833e-16,5.0822e-21,0,9.3406e-05,3.7508e-18,3.7353e-06,3.7353e-06,1,0.774,1,0.025,0
2.3353e-06,-4.4535e-21,0.99,0.000775,0,0.0071558,-8.7746e-16,4.6587e-21,0,9.3406e-05,1.4004e-18,3.7353e-06,3.7353e-06,1,0.775,1,0.025,0
2.3353e-06,8.2586e-21,0.99,0.000776,0,0.0071957,-8.7722e-16,5.0822e-21,0,9.3406e-05,3.792e-19,3.7353e-06,3.7353e-06,1,0.776,1,0.025,0
2.3353e-06,3.5542e-20,0.99,0.000777,0,0.0072357,-8.8307e-16,5.0822e-21,0,9.3406e-05,-9.1714e-18,3.7353e-06,3.7353e-06,1,0.777,1,0.025,0
2.3353e-06,-4.8413e-20,0.99,0.000778,0,0.0072756,-8.8243e-16,3.8116e-21,0,9.3406e-05,9.0601e-19,3.7353e-06,3.7353e-06,1,0.778,1,0.025,0
2.3353e-06,-1.1858e-20,0.99,0.000779,0,0.0073156,-8.8156e-16,4.6587e-21,0,9.3406e-05,1.372e-18,3.7353e-06,3.7353e-06,1,0.779,1,0.025,0
2.3353e-06,1.4704e-20,0.99,0.00078,0,0.0073555,-8.8243e-16,4.2352e-21,0,9.3406e-05,-1.3492e-18,3.7353e-06,3.7353e-06,1,0.78,1,0.025,0
2.3353e-06,3.136e-20,0.99,0.000781,0,0.0073955,-8.7763e-16,4.6587e-21,0,9.3406e-05,7.5315e-18,3.7353e-06,3.7353e-06,1,0.781,1,0.025,0
2.3353e-06,6.1873e-21,0.99,0.000782,0,0.0074354,-8.781e-16,4.2352e-21,0,9.3406e-05,-6.5507e-19,3.7353e-06,3.7353e-06,1,0.782,1,0.025,0
2.3353e-06,5.7029e-20,0.99,0.000783,0,0.0074754,-8.7983e-16,4.6587e-21,0,9.3406e-05,-2.7324e-18,3.7353e-06,3.7353e-06,1,0.783,1,0.025,0
2.3353e-06,-1.9323e-20,0.99,0.000784,0,0.0075153,-8.8283e-16,5.0822e-21,0,9.3406e-05,-4.7486e-18,3.7353e-06,3.7353e-06,1,0.784,1,0.025,0
2.3353e-06,-2.5107e-20,0.99,0.000785,0,0.0075553,-8.8197e-16,4.2352e-21,0,9.3406e-05,1.3154e-18,3.7353e-06,3.7353e-06,1,0.785,1,0.025,0
2.3353e-06,1.5326e-20,0.99,0.000786,0,0.0075952,-8.822e-16,4.6587e-21,0,9.3406e-05,-3.5204e-19,3.7353e-06,3.7353e-06,1,0.786,1,0.025,0
2.3353e-06,7.0112e-20,0.99,0.000787,0,0.0076352,-8.8047e-16,4.6587e-21,0,9.3406e-05,2.7223e-18,3.7353e-06,3.7353e-06,1,0.787,1,0.025,0
2.3353e-06,-5.2443e-20,0.99,0.000788,0,0.0076751,-8.785e-16,2.9646e-21,0,9.3406e-05,3.1182e-18,3.7353e-06,3.7353e-06,1,0.788,1,0.025,0
2.3353e-06,9.8719e-20,0.99,0.000789,0,0.0077151,-8.7873e-16,3.8116e-21,0,9.3406e-05,-3.3401e-19,3.7353e-06,3.7353e-06,1,0.789,1,0.025,0
2.3353e-06,-2.4187e-20,0.99,0.00079,0,0.007755,-8.8173e-16,3.8116e-21,0,9.3406e-05,-4.7246e-18,3.7353e-06,3.7353e-06,1,0.79,1,0.025,0
2.3353e-06,-2.1513e-20,0.99,0.000791,0,0.007795,-8.7936e-16,5.0822e-21,0,9.3406e-05,3.6763e-18,3.7353e-06,3.7353e-06,1,0.791,1,0.025,0
2.3353e-06,5.5322e-20,0.99,0.000792,0,0.0078349,-8.785e-16,3.8116e-21,0,9.3406e-05,1.3997e-18,3.7353e-06,3.7353e-06,1,0.792,1,0.025,0
2.3353e-06,-1.6563e-20,0.99,0.000793,0,0.0078749,-8.7289e-16,5.5057e-21,0,9.3406e-05,8.824e-18,3.7353e-06,3.7353e-06,1,0.793,1,0.025,0
2.3353e-06,-3.8765e-20,0.99,0.000794,0,0.0079148,-8.8046e-16,4.6587e-21,0,9.3406e-05,-1.1813e-17,3.7353e-06,3.7353e-06,1,0.794,1,0.025,0
2.3353e-06,4.1048e-20,0.99,0.000795,0,0.0079548,-8.8197e-16,5.5057e-21,0,9.3406e-05,-2.4788e-18,3.7353e-06,3.7353e-06,1,0.795,1,0.025,0
2.3353e-06,7.3765e-20,0.99,0.000796,0,0.0079947,-8.8e-16,4.6587e-21,0,9.3406e-05,3.0662e-18,3.7353e-06,3.7353e-06,1,0.796,1,0.025,0
2.3353e-06,-5.6857e-20,0.99,0.000797,0,0.0080347,-8.8284e-16,3.8116e-21,0,9.3405e-05,-4.4233e-18,3.7353e-06,3.7353e-06,1,0.797,1,0.025,0
2.3353e-06,2.915e-20,0.99,0.000798,0,0.0080746,-8.8174e-16,5.0822e-21,0,9.3405e-05,1.6839e-18,3.7353e-06,3.7353e-06,1,0.798,1,0.025,0
2.3353e-06,-8.1593e-21,0.99,0.000799,0,0.0081146,-8.815e-16,5.5057e-21,0,9.3405e-05,3.8203e-19,3.7352e-06,3.7352e-06,1,0.799,1,0.025,0
2.3353e-06,1.0773e-20,0.99,0.0008,0,0.0081545,-8.7763e-16,3.3881e-21,0,9.3405e-05,6.088e-18,3.7352e-06,3.7352e-06,1,0.8,1,0.025,0
2.3353e-06,5.5388e-20,0.99,0.000801,0,0.0081944,-8.8e-16,4.6587e-21,0,9.3405e-05,-3.6627e-18,3.7352e-06,3.7352e-06,1,0.801,1,0.025,0
2.3353e-06,-1.1289e-19,0.99,0.000802,0,0.0082344,-8.8457e-16,5.0822e-21,0,9.3405e-05,-7.2164e-18,3.7352e-06,3.7352e-06,1,0.802,1,0.025,0
2.3353e-06,7.7927e-20,0.99,0.000803,0,0.0082743,-8.8237e-16,3.3881e-21,0,9.3405e-05,3.384e-18,3.7352e-06,3.7352e-06,1,0.803,1,0.025,0
2.3353e-06,-2.1685e-20,0.99,0.000804,0,0.0083143,-8.815e-16,3.8116e-21,0,9.3405e-05,1.3968e-18,3.7352e-06,3.7352e-06,1,0.804,1,0.025,0
2.3353e-06,1.39e-19,0.99,0.000805,0,0.0083542,-8.7913e-16,4.2352e-21,0,9.3405e-05,3.7375e-18,3.7352e-06,3.7352e-06,1,0.805,1,0.025,0
2.3353e-06,6.7425e-20,0.99,0.000806,0,0.0083942,-8.8537e-16,5.5057e-21,0,9.3405e-05,-9.7704e-18,3.7352e-06,3.7352e-06,1,0.806,1,0.025,0
2.3353e-06,-3.003e-20,0.99,0.000807,0,0.0084341,-8.8387e-16,2.9646e-21,0,9.3405e-05,2.2629e-18,3.7352e-06,3.7352e-06,1,0.807,1,0.025,0
2.3353e-06,9.7673e-20,0.99,0.000808,0,0.0084741,-8.8404e-16,4.2352e-21,0,9.3405e-05,-2.4471e-19,3.7352e-06,3.7352e-06,1,0.808,1,0.025,0
2.3353e-06,-3.1764e-22,0.99,0.000809,0,0.008514,-8.8624e-16,5.5057e-21,0,9.3405e-05,-3.4587e-18,3.7352e-06,3.7352e-06,1,0.809,1,0.025,0
2.3353e-06,-1.2428e-20,0.99,0.00081,0,0.008554,-8.8537e-16,3.8116e-21,0,9.3405e-05,1.3283e-18,3.7352e-06,3.7352e-06,1,0.81,1,0.025,0
2.3353e-06,-5.1484e-21,0.99,0.000811,0,0.0085939,-8.9051e-16,4.2352e-21,0,9.3405e-05,-8.0663e-18,3.7352e-06,3.7352e-06,1,0.811,1,0.025,0
2.3353e-06,1.297e-20,0.99,0.000812,0,0.0086339,-8.9075e-16,4.6587e-21,0,9.3405e-05,-4.4585e-19,3.7352e-06,3.7352e-06,1,0.812,1,0.025,0
2.3353e-06,6.3527e-22,0.99,0.000813,0,0.0086738,-8.8665e-16,3.3881e-21,0,9.3405e-05,6.4449e-18,3.7352e-06,3.7352e-06,1,0.813,1,0.025,0
2.3353e-06,3.5556e-20,0.99,0.000814,0,0.0087138,-8.8901e-16,3.8116e-21,0,9.3405e-05,-3.6591e-18,3.7352e-06,3.7352e-06,1,0.814,1,0.025,0
2.3353e-06,-4.2067e-20,0.99,0.000815,0,0.0087537,-8.8751e-16,4.6587e-21,0,9.3405e-05,2.324e-18,3.7352e-06,3.7352e-06,1,0.815,1,0.025,0
2.3353e-06,-3.0692e-20,0.99,0.000816,0,0.0087937,-8.8902e-16,4.6587e-21,0,9.3405e-05,-2.3374e-18,3.7352e-06,3.7352e-06,1,0.816,1,0.025,0
2.3353e-06,2.111e-21,0.99,0.000817,0,0.0088336,-8.8878e-16,4.2352e-21,0,9.3405e-05,3.4182e-19,3.7352e-06,3.7352e-06,1,0.817,1,0.025,0
2.3353e-06,-7.1468e-22,0.99,0.000818,0,0.0088736,-8.8988e-16,4.2352e-21,0,9.3405e-05,-1.7247e-18,3.7352e-06,3.7352e-06,1,0.818,1,0.025,0
2.3353e-06,6.4348e-20,0.99,0.000819,0,0.0089135,-8.9115e-16,5.9292e-21,0,9.3405e-05,-2.0127e-18,3.7352e-06,3.7352e-06,1,0.819,1,0.025,0
2.3353e-06,-2.7423e-20,0.99,0.00082,0,0.0089535,-8.9462e-16,3.8116e-21,0,9.3405e-05,-5.4718e-18,3.7352e-06,3.7352e-06,1,0.82,1,0.025,0
2.3353e-06,1.3865e-19,0.99,0.000821,0,0.0089934,-8.9202e-16,3.8116e-21,0,9.3405e-05,4.034e-18,3.7352e-06,3.7352e-06,1,0.821,1,0.025,0
2.3353e-06,-2.602e-20,0.99,0.000822,0,0.0090334,-8.9416e-16,3.8116e-21,0,9.3405e-05,-3.318e-18,3.7352e-06,3.7352e-06,1,0.822,1,0.025,0
2.3353e-06,4.9859e-19,0.99,0.000823,0,0.0090733,-9.0814e-16,4.2352e-21,0,9.3405e-05,-2.2009e-17,3.7352e-06,3.7352e-06,1,0.823,1,0.025,0
2.3353e-06,1.3521e-18,0.99,0.000824,0,0.0091133,-9.3946e-16,4.2352e-21,0,9.3405e-05,-4.9428e-17,3.7352e-06,3.7352e-06,1,0.824,1,0.025,0
2.3353e-06,-1.0165e-19,0.99,0.000825,0,0.0091532,-9.4576e-16,3.3881e-21,0,9.3405e-05,-1.04e-17,3.7352e-06,3.7352e-06,1,0.825,1,0.025,0
2.3353e-06,-6.3594e-21,0.99,0.000826,0,0.0091932,-9.4252e-16,4.2352e-21,0,9.3405e-05,4.9825e-18,3.7352e-06,3.7352e-06,1,0.826,1,0.025,0
2.3353e-06,1.4585e-20,0.99,0.000827,0,0.0092331,-9.4142e-16,3.8116e-21,0,9.3405e-05,1.7779e-18,3.7352e-06,3.7352e-06,1,0.827,1,0.025,0
2.3353e-06,7.4274e-20,0.99,0.000828,0,0.0092731,-9.3622e-16,4.6587e-21,0,9.3405e-05,8.1953e-18,3.7352e-06,3.7352e-06,1,0.828,1,0.025,0
2.3353e-06,4.1039e-19,0.99,0.000829,0,0.009313,-9.539e-16,5.0822e-21,0,9.3405e-05,-2.7711e-17,3.7352e-06,3.7352e-06,1,0.829,1,0.025,0
2.3353e-06,-5.1007e-20,0.99,0.00083,0,0.009353,-9.513e-16,4.2352e-21,0,9.3405e-05,3.8116e-18,3.7352e-06,3.7352e-06,1,0.83,1,0.025,0
2.3353e-06,1.2042e-19,0.99,0.000831,0,0.0093929,-9.5714e-16,4.6587e-21,0,9.3405e-05,-9.1371e-18,3.7352e-06,3.7352e-06,1,0.831,1,0.025,0
2.3353e-06,6.3991e-21,0.99,0.000832,0,0.0094328,-9.6205e-16,3.8116e-21,0,9.3405e-05,-7.8058e-18,3.7352e-06,3.7352e-06,1,0.832,1,0.025,0
2.3353e-06,3.0582e-19,0.99,0.000833,0,0.0094728,-9.6506e-16,2.5411e-21,0,9.3405e-05,-4.7993e-18,3.7352e-06,3.7352e-06,1,0.833,1,0.025,0
2.3353e-06,-4.2696e-20,0.99,0.000834,0,0.0095127,-9.6333e-16,2.9646e-21,0,9.3405e-05,2.6778e-18,3.7352e-06,3.7352e-06,1,0.834,1,0.025,0
2.3353e-06,8.0931e-21,0.99,0.000835,0,0.0095527,-9.5685e-16,3.8116e-21,0,9.3405e-05,1.02e-17,3.7352e-06,3.7352e-06,1,0.835,1,0.025,0
2.3353e-06,-2.8984e-20,0.99,0.000836,0,0.0095926,-9.6332e-16,3.8116e-21,0,9.3405e-05,-1.0071e-17,3.7352e-06,3.7352e-06,1,0.836,1,0.025,0
2.3353e-06,-3.406e-20,0.99,0.000837,0,0.0096326,-9.6333e-16,4.2352e-21,0,9.3405e-05,-1.0071e-19,3.7352e-06,3.7352e-06,1,0.837,1,0.025,0
2.3353e-06,7.6639e-19,0.99,0.000838,0,0.0096725,-9.8309e-16,4.2352e-21,0,9.3405e-05,-3.1054e-17,3.7352e-06,3.7352e-06,1,0.838,1,0.025,0
2.3353e-06,1.2705e-21,0.99,0.000839,0,0.0097125,-9.8198e-16,5.0822e-21,0,9.3405e-05,1.4176e-18,3.7352e-06,3.7352e-06,1,0.839,1,0.025,0
2.3353e-06,6.538e-21,0.99,0.00084,0,0.0097524,-9.8199e-16,4.6587e-21,0,9.3405e-05,1.4177e-20,3.7352e-06,3.7352e-06,1,0.84,1,0.025,0
2.3353e-06,1.3784e-19,0.99,0.000841,0,0.0097924,-9.7898e-16,4.2352e-21,0,9.3405e-05,4.7214e-18,3.7352e-06,3.7352e-06,1,0.841,1,0.025,0
2.3353e-06,-7.7484e-20,0.99,0.000842,0,0.0098323,-9.7962e-16,4.2352e-21,0,9.3405e-05,-9.5051e-19,3.7352e-06,3.7352e-06,1,0.842,1,0.025,0
2.3353e-06,1.2077e-19,0.99,0.000843,0,0.0098723,-9.8095e-16,4.2352e-21,0,9.3405e-05,-2.1028e-18,3.7352e-06,3.7352e-06,1,0.843,1,0.025,0
2.3353e-06,-1.8851e-19,0.99,0.000844,0,0.0099122,-9.8372e-16,4.6587e-21,0,9.3405e-05,-4.3771e-18,3.7352e-06,3.7352e-06,1,0.844,1,0.025,0
2.3353e-06,7.1468e-21,0.99,0.000845,0,0.0099522,-9.7962e-16,4.2352e-21,0,9.3405e-05,6.4056e-18,3.7352e-06,3.7352e-06,1,0.845,1,0.025,0
2.3353e-06,8.6027e-21,0.99,0.000846,0,0.0099921,-9.8048e-16,4.2352e-21,0,9.3405e-05,-1.2989e-18,3.7352e-06,3.7352e-06,1,0.846,1,0.025,0
2.3353e-06,4.7328e-20,0.99,0.000847,0,0.010032,-9.8112e-16,5.0822e-21,0,9.3405e-05,-1.0107e-18,3.7352e-06,3.7352e-06,1,0.847,1,0.025,0
2.3353e-06,-3.588e-20,0.99,0.000848,0,0.010072,-9.8245e-16,3.8116e-21,0,9.3405e-05,-2.1034e-18,3.7352e-06,3.7352e-06,1,0.848,1,0.025,0
2.3353e-06,9.8911e-20,0.99,0.000849,0,0.010112,-9.7788e-16,5.0822e-21,0,9.3405e-05,7.1587e-18,3.7352e-06,3.7352e-06,1,0.849,1,0.025,0
2.3353e-06,4.3477e-21,0.99,0.00085,0,0.010152,-9.7852e-16,3.8116e-21,0,9.3405e-05,-9.2613e-19,3.7352e-06,3.7352e-06,1,0.85,1,0.025,0
2.3353e-06,-7.4248e-21,0.99,0.000851,0,0.010192,-9.7962e-16,4.6587e-21,0,9.3405e-05,-1.7374e-18,3.7352e-06,3.7352e-06,1,0.851,1,0.025,0
2.3353e-06,1.1316e-21,0.99,0.000852,0,0.010232,-9.7898e-16,5.0822e-21,0,9.3404e-05,9.8035e-19,3.7352e-06,3.7352e-06,1,0.852,1,0.025,0
2.3353e-06,-1.7245e-20,0.99,0.000853,0,0.010272,-9.8545e-16,4.2352e-21,0,9.3404e-05,-1.0163e-17,3.7352e-06,3.7352e-06,1,0.853,1,0.025,0
2.3353e-06,-2.5153e-20,0.99,0.000854,0,0.010312,-9.8048e-16,5.0822e-21,0,9.3404e-05,7.7107e-18,3.7352e-06,3.7352e-06,1,0.854,1,0.025,0
2.3353e-06,9.3478e-20,0.99,0.000855,0,0.010352,-9.8349e-16,5.0822e-21,0,9.3404e-05,-4.6442e-18,3.7352e-06,3.7352e-06,1,0.855,1,0.025,0
2.3353e-06,-6.3527e-21,0.99,0.000856,0,0.010392,-9.7805e-16,4.2352e-21,0,9.3404e-05,8.4962e-18,3.7352e-06,3.7352e-06,1,0.856,1,0.025,0
2.3353e-06,-4.0439e-20,0.99,0.000857,0,0.010432,-9.8198e-16,5.0822e-21,0,9.3404e-05,-6.0971e-18,3.7352e-06,3.7352e-06,1,0.857,1,0.025,0
2.3353e-06,1.6089e-19,0.99,0.000858,0,0.010471,-9.8586e-16,4.6587e-21,0,9.3404e-05,-6.1452e-18,3.7352e-06,3.7352e-06,1,0.858,1,0.025,0
2.3353e-06,-4.981e-20,0.99,0.000859,0,0.010511,-9.8523e-16,5.0822e-21,0,9.3404e-05,9.3627e-19,3.7352e-06,3.7352e-06,1,0.859,1,0.025,0
2.3353e-06,1.9637e-19,0.99,0.00086,0,0.010551,-9.884e-16,5.5057e-21,0,9.3404e-05,-4.9792e-18,3.7352e-06,3.7352e-06,1,0.86,1,0.025,0
2.3353e-06,1.5829e-20,0.99,0.000861,0,0.010591,-9.925e-16,4.6587e-21,0,9.3404e-05,-6.4992e-18,3.7352e-06,3.7352e-06,1,0.861,1,0.025,0
2.3353e-06,3.7066e-19,0.99,0.000862,0,0.010631,-1.0017e-15,4.6587e-21,0,9.3404e-05,-1.4594e-17,3.7352e-06,3.7352e-06,1,0.862,1,0.025,0
2.3353e-06,1.8727e-20,0.99,0.000863,0,0.010671,-1.0009e-15,4.6587e-21,0,9.3404e-05,1.217e-18,3.7352e-06,3.7352e-06,1,0.863,1,0.025,0
2.3353e-06,-8.1659e-21,0.99,0.000864,0,0.010711,-1.005e-15,4.2352e-21,0,9.3404e-05,-6.4372e-18,3.7352e-06,3.7352e-06,1,0.864,1,0.025,0
2.3353e-06,-1.8138e-20,0.99,0.000865,0,0.010751,-1.0041e-15,4.2352e-21,0,9.3404e-05,1.2985e-18,3.7352e-06,3.7352e-06,1,0.865,1,0.025,0
2.3353e-06,9.9222e-20,0.99,0.000866,0,0.010791,-1.0059e-15,4.2352e-21,0,9.3404e-05,-2.7128e-18,3.7352e-06,3.7352e-06,1,0.866,1,0.025,0
2.3353e-06,7.8774e-20,0.99,0.000867,0,0.010831,-1.0019e-15,3.8116e-21,0,9.3404e-05,6.1549e-18,3.7352e-06,3.7352e-06,1,0.867,1,0.025,0
2.3353e-06,-1.9753e-19,0.99,0.000868,0,0.010871,-1.0035e-15,5.0822e-21,0,9.3404e-05,-2.3969e-18,3.7352e-06,3.7352e-06,1,0.868,1,0.025,0
2.3353e-06,-7.029e-20,0.99,0.000869,0,0.010911,-9.9441e-16,5.0822e-21,0,9.3404e-05,1.4238e-17,3.7352e-06,3.7352e-06,1,0.869,1,0.025,0
2.3353e-06,-1.0348e-19,0.99,0.00087,0,0.010951,-9.9487e-16,4.6587e-21,0,9.3404e-05,-5.8801e-19,3.7352e-06,3.7352e-06,1,0.87,1,0.025,0
2.3353e-06,-8.8078e-21,0.99,0.000871,0,0.010991,-9.9574e-16,3.8116e-21,0,9.3404e-05,-1.3688e-18,3.7352e-06,3.7352e-06,1,0.871,1,0.025,0
2.3353e-06,2.1235e-20,0.99,0.000872,0,0.011031,-9.9615e-16,4.6587e-21,0,9.3404e-05,-6.4622e-19,3.7352e-06,3.7352e-06,1,0.872,1,0.025,0
2.3353e-06,2.4736e-20,0.99,0.000873,0,0.011071,-1.0011e-15,3.8116e-21,0,9.3404e-05,-7.8188e-18,3.7352e-06,3.7352e-06,1,0.873,1,0.025,0
2.3353e-06,-1.0296e-19,0.99,0.000874,0,0.011111,-9.9701e-16,5.5057e-21,0,9.3404e-05,6.3712e-18,3.7352e-06,3.7352e-06,1,0.874,1,0.025,0
2.3353e-06,3.4828e-20,0.99,0.000875,0,0.011151,-9.9874e-16,5.0822e-21,0,9.3404e-05,-2.6621e-18,3.7352e-06,3.7352e-06,1,0.875,1,0.025,0
2.3353e-06,6.6836e-21,0.99,0.000876,0,0.011191,-1.002e-15,4.2352e-21,0,9.3404e-05,-5.1131e-18,3.7352e-06,3.7352e-06,1,0.876,1,0.025,0
2.3353e-06,-1.6246e-20,0.99,0.000877,0,0.011231,-9.9741e-16,4.2352e-21,0,9.3404e-05,7.1286e-18,3.7352e-06,3.7352e-06,1,0.877,1,0.025,0
2.3353e-06,3.3564e-20,0.99,0.000878,0,0.01127,-9.9464e-16,5.0822e-21,0,9.3404e-05,4.4274e-18,3.7352e-06,3.7352e-06,1,0.878,1,0.025,0
2.3353e-06,7.0145e-21,0.99,0.000879,0,0.01131,-9.9741e-16,4.2352e-21,0,9.3404e-05,-4.3118e-18,3.7352e-06,3.7352e-06,1,0.879,1,0.025,0
2.3352e-06,9.5079e-20,0.99,0.00088,0,0.01135,-9.9701e-16,3.8116e-21,0,9.3404e-05,5.8941e-19,3.7352e-06,3.7352e-06,1,0.88,1,0.025,0
2.3352e-06,-6.9655e-20,0.99,0.000881,0,0.01139,-1.0024e-15,4.2352e-21,0,9.3404e-05,-8.4389e-18,3.7352e-06,3.7352e-06,1,0.881,1,0.025,0
2.3352e-06,2.6013e-20,0.99,0.000882,0,0.01143,-9.9505e-16,2.9646e-21,0,9.3404e-05,1.1451e-17,3.7352e-06,3.7352e-06,1,0.882,1,0.025,0
2.3352e-06,1.1207e-19,0.99,0.000883,0,0.01147,-9.9914e-16,3.8116e-21,0,9.3404e-05,-6.3349e-18,3.7352e-06,3.7352e-06,1,0.883,1,0.025,0
2.3352e-06,-1.0634e-19,0.99,0.000884,0,0.01151,-9.9938e-16,3.3881e-21,0,9.3404e-05,-4.2854e-19,3.7352e-06,3.7352e-06,1,0.884,1,0.025,0
2.3352e-06,4.5138e-20,0.99,0.000885,0,0.01155,-9.9654e-16,4.2352e-21,0,9.3404e-05,4.4496e-18,3.7352e-06,3.7352e-06,1,0.885,1,0.025,0
2.3352e-06,-4.3774e-20,0.99,0.000886,0,0.01159,-9.9938e-16,4.2352e-21,0,9.3404e-05,-4.4094e-18,3.7352e-06,3.7352e-06,1,0.886,1,0.025,0
2.3352e-06,5.3138e-20,0.99,0.000887,0,0.01163,-1e-15,3.8116e-21,0,9.3404e-05,-1.0418e-18,3.7352e-06,3.7352e-06,1,0.887,1,0.025,0
2.3352e-06,-1.7047e-20,0.99,0.000888,0,0.01167,-1.0041e-15,3.8116e-21,0,9.3404e-05,-6.4598e-18,3.7352e-06,3.7352e-06,1,0.888,1,0.025,0
2.3352e-06,1.2188e-19,0.99,0.000889,0,0.01171,-9.9481e-16,5.5057e-21,0,9.3404e-05,1.4562e-17,3.7352e-06,3.7352e-06,1,0.889,1,0.025,0
2.3352e-06,-4.9181e-20,0.99,0.00089,0,0.01175,-1.0015e-15,3.8116e-21,0,9.3404e-05,-1.0392e-17,3.7352e-06,3.7352e-06,1,0.89,1,0.025,0
2.3352e-06,2.7562e-20,0.99,0.000891,0,0.01179,-9.9851e-16,3.8116e-21,0,9.3404e-05,4.6173e-18,3.7352e-06,3.7352e-06,1,0.891,1,0.025,0
2.3352e-06,1.8396e-20,0.99,0.000892,0,0.01183,-9.9805e-16,4.6587e-21,0,9.3404e-05,7.7656e-19,3.7352e-06,3.7352e-06,1,0.892,1,0.025,0
2.3352e-06,4.5197e-21,0.99,0.000893,0,0.01187,-1.0024e-15,4.6587e-21,0,9.3404e-05,-6.8068e-18,3.7352e-06,3.7352e-06,1,0.893,1,0.025,0
2.3352e-06,2.0957e-20,0.99,0.000894,0,0.01191,-1.0017e-15,3.8116e-21,0,9.3404e-05,1.0275e-18,3.7352e-06,3.7352e-06,1,0.894,1,0.025,0
2.3352e-06,-4.3675e-22,0.99,0.000895,0,0.01195,-1.0019e-15,4.2352e-21,0,9.3404e-05,-3.5492e-19,3.7352e-06,3.7352e-06,1,0.895,1,0.025,0
2.3352e-06,5.2212e-21,0.99,0.000896,0,0.01199,-9.9781e-16,3.8116e-21,0,9.3404e-05,6.4458e-18,3.7352e-06,3.7352e-06,1,0.896,1,0.025,0
2.3352e-06,6.317e-20,0.99,0.000897,0,0.012029,-1.0004e-15,4.2352e-21,0,9.3404e-05,-4.0243e-18,3.7352e-06,3.7352e-06,1,0.897,1,0.025,0
2.3352e-06,-5.5123e-21,0.99,0.000898,0,0.012069,-1.0019e-15,4.2352e-21,0,9.3404e-05,-2.4009e-18,3.7352e-06,3.7352e-06,1,0.898,1,0.025,0
2.3352e-06,1.6066e-19,0.99,0.000899,0,0.012109,-9.9718e-16,3.3881e-21,0,9.3404e-05,7.4231e-18,3.7352e-06,3.7352e-06,1,0.899,1,0.025,0
2.3352e-06,-4.6971e-20,0.99,0.0009,0,0.012149,-1.0041e-15,4.2352e-21,0,9.3404e-05,-1.0731e-17,3.7352e-06,3.7352e-06,1,0.9,1,0.025,0
2.3352e-06,3.4503e-20,0.99,0.000901,0,0.012189,-9.9695e-16,3.8116e-21,0,9.3404e-05,1.1063e-17,3.7352e-06,3.7352e-06,1,0.901,1,0.025,0
2.3352e-06,-4.6871e-20,0.99,0.000902,0,0.012229,-1.0037e-15,4.2352e-21,0,9.3404e-05,-1.0427e-17,3.7352e-06,3.7352e-06,1,0.902,1,0.025,0
2.3352e-06,-2.1136e-20,0.99,0.000903,0,0.012269,-1.0028e-15,5.5057e-21,0,9.3404e-05,1.2586e-18,3.7352e-06,3.7352e-06,1,0.903,1,0.025,0
2.3352e-06,1.2607e-19,0.99,0.000904,0,0.012309,-9.9735e-16,4.6587e-21,0,9.3404e-05,8.5553e-18,3.7352e-06,3.7352e-06,1,0.904,1,0.025,0
2.3352e-06,7.4459e-20,0.99,0.000905,0,0.012349,-1.0049e-15,3.3881e-21,0,9.3404e-05,-1.1815e-17,3.7352e-06,3.7352e-06,1,0.905,1,0.025,0
2.3352e-06,-1.5703e-20,0.99,0.000906,0,0.012389,-1.0071e-15,3.8116e-21,0,9.3404e-05,-3.4765e-18,3.7352e-06,3.7352e-06,1,0.906,1,0.025,0
2.3352e-06,5.0491e-21,0.99,0.000907,0,0.012429,-1.0071e-15,5.5057e-21,0,9.3404e-05,-3.4763e-20,3.7352e-06,3.7352e-06,1,0.907,1,0.025,0
2.3352e-06,8.6966e-20,0.99,0.000908,0,0.012469,-1.0008e-15,5.5057e-21,0,9.3404e-05,9.8074e-18,3.7352e-06,3.7352e-06,1,0.908,1,0.025,0
2.3352e-06,-6.3309e-20,0.99,0.000909,0,0.012509,-1.0062e-15,4.2352e-21,0,9.3404e-05,-8.3467e-18,3.7352e-06,3.7352e-06,1,0.909,1,0.025,0
2.3352e-06,1.5472e-20,0.99,0.00091,0,0.012549,-1.0023e-15,5.9292e-21,0,9.3404e-05,6.0007e-18,3.7352e-06,3.7352e-06,1,0.91,1,0.025,0
2.3352e-06,-3.2002e-20,0.99,0.000911,0,0.012589,-1.0056e-15,3.8116e-21,0,9.3404e-05,-5.0265e-18,3.7352e-06,3.7352e-06,1,0.911,1,0.025,0
2.3352e-06,-1.6828e-20,0.99,0.000912,0,0.012629,-1.0056e-15,4.6587e-21,0,9.3404e-05,-5.0263e-20,3.7352e-06,3.7352e-06,1,0.912,1,0.025,0
2.3352e-06,1.5248e-19,0.99,0.000913,0,0.012669,-1.0023e-15,4.6587e-21,0,9.3404e-05,5.086e-18,3.7352e-06,3.7352e-06,1,0.913,1,0.025,0
2.3352e-06,-6.0371e-20,0.99,0.000914,0,0.012709,-1.0077e-15,4.2352e-21,0,9.3404e-05,-8.394e-18,3.7352e-06,3.7352e-06,1,0.914,1,0.025,0
2.3352e-06,7.3414e-20,0.99,0.000915,0,0.012749,-9.9949e-16,4.6587e-21,0,9.3404e-05,1.2815e-17,3.7352e-06,3.7352e-06,1,0.915,1,0.025,0
2.3352e-06,1.2507e-20,0.99,0.000916,0,0.012788,-1.0092e-15,4.6587e-21,0,9.3404e-05,-1.5131e-17,3.7352e-06,3.7352e-06,1,0.916,1,0.025,0
2.3352e-06,8.0144e-20,0.99,0.000917,0,0.012828,-1.0051e-15,3.3881e-21,0,9.3403e-05,6.2981e-18,3.7352e-06,3.7352e-06,1,0.917,1,0.025,0
2.3352e-06,5.4263e-22,0.99,0.000918,0,0.012868,-1.0051e-15,5.0822e-21,0,9.3403e-05,6.2982e-20,3.7352e-06,3.7352e-06,1,0.918,1,0.025,0
2.3352e-06,2.9845e-21,0.99,0.000919,0,0.012908,-1.006e-15,4.2352e-21,0,9.3403e-05,-1.3623e-18,3.7352e-06,3.7352e-06,1,0.919,1,0.025,0
2.3352e-06,-8.5815e-20,0.99,0.00092,0,0.012948,-1.0118e-15,3.3881e-21,0,9.3403e-05,-9.1888e-18,3.7352e-06,3.7352e-06,1,0.92,1,0.025,0
2.3352e-06,-1.3731e-20,0.99,0.000921,0,0.012988,-1.0107e-15,4.2352e-21,0,9.3403e-05,1.6362e-18,3.7352e-06,3.7352e-06,1,0.921,1,0.025,0
2.3352e-06,5.331e-20,0.99,0.000922,0,0.013028,-1.0083e-15,5.0822e-21,0,9.3403e-05,3.7399e-18,3.7352e-06,3.7352e-06,1,0.922,1,0.025,0
2.3352e-06,6.7445e-20,0.99,0.000923,0,0.013068,-1.0046e-15,2.9646e-21,0,9.3403e-05,5.8542e-18,3.7352e-06,3.7352e-06,1,0.923,1,0.025,0
2.3352e-06,-3.2869e-20,0.99,0.000924,0,0.013108,-1.0031e-15,5.0822e-21,0,9.3403e-05,2.4192e-18,3.7352e-06,3.7352e-06,1,0.924,1,0.025,0
2.3352e-06,1.2499e-19,0.99,0.000925,0,0.013148,-1.0111e-15,5.0822e-21,0,9.3403e-05,-1.2509e-17,3.7352e-06,3.7352e-06,1,0.925,1,0.025,0
2.3352e-06,3.33e-19,0.99,0.000926,0,0.013188,-1.0227e-15,3.3881e-21,0,9.3403e-05,-1.8378e-17,3.7352e-06,3.7352e-06,1,0.926,1,0.025,0
2.3352e-06,1.5878e-18,0.99,0.000927,0,0.013228,-1.0555e-15,4.2352e-21,0,9.3403e-05,-5.1753e-17,3.7352e-06,3.7352e-06,1,0.927,1,0.025,0
2.3352e-06,1.3634e-18,0.99,0.000928,0,0.013268,-1.0952e-15,2.9646e-21,0,9.3403e-05,-6.2892e-17,3.7352e-06,3.7352e-06,1,0.928,1,0.025,0
2.3352e-06,6.4911e-20,0.99,0.000929,0,0.013308,-1.1013e-15,4.6587e-21,0,9.3403e-05,-1.0169e-17,3.7352e-06,3.7352e-06,1,0.929,1,0.025,0
2.3352e-06,4.6713e-20,0.99,0.00093,0,0.013348,-1.0983e-15,4.2352e-21,0,9.3403e-05,4.6196e-18,3.7352e-06,3.7352e-06,1,0.93,1,0.025,0
2.3352e-06,-2.5868e-20,0.99,0.000931,0,0.013388,-1.0981e-15,4.2352e-21,0,9.3403e-05,4.1139e-19,3.7352e-06,3.7352e-06,1,0.931,1,0.025,0
2.3352e-06,-8.7813e-21,0.99,0.000932,0,0.013428,-1.1013e-15,4.2352e-21,0,9.3403e-05,-5.0823e-18,3.7352e-06,3.7352e-06,1,0.932,1,0.025,0
2.3352e-06,1.5057e-18,0.99,0.000933,0,0.013468,-1.1445e-15,3.3881e-21,0,9.3403e-05,-6.7877e-17,3.7352e-06,3.7352e-06,1,0.933,1,0.025,0
2.3352e-06,3.3398e-20,0.99,0.000934,0,0.013508,-1.1385e-15,3.8116e-21,0,9.3403e-05,8.7638e-18,3.7352e-06,3.7352e-06,1,0.934,1,0.025,0
2.3352e-06,5.6248e-21,0.99,0.000935,0,0.013547,-1.1402e-15,4.2352e-21,0,9.3403e-05,-2.6382e-18,3.7352e-06,3.7352e-06,1,0.935,1,0.025,0
2.3352e-06,4.9962e-20,0.99,0.000936,0,0.013587,-1.1393e-15,5.9292e-21,0,9.3403e-05,1.3365e-18,3.7352e-06,3.7352e-06,1,0.936,1,0.025,0
2.3352e-06,-6.8438e-20,0.99,0.000937,0,0.013627,-1.1482e-15,4.2352e-21,0,9.3403e-05,-1.3883e-17,3.7352e-06,3.7352e-06,1,0.937,1,0.025,0
2.3352e-06,1.1118e-18,0.99,0.000938,0,0.013667,-1.1676e-15,3.8116e-21,0,9.3403e-05,-3.0729e-17,3.7352e-06,3.7352e-06,1,0.938,1,0.025,0
2.3352e-06,3.8125e-19,0.99,0.000939,0,0.013707,-1.176e-15,4.2352e-21,0,9.3403e-05,-1.3473e-17,3.7352e-06,3.7352e-06,1,0.939,1,0.025,0
2.3352e-06,1.8201e-19,0.99,0.00094,0,0.013747,-1.1887e-15,4.6587e-21,0,9.3403e-05,-2.0115e-17,3.7352e-06,3.7352e-06,1,0.94,1,0.025,0
2.3352e-06,9.5417e-20,0.99,0.000941,0,0.013787,-1.1872e-15,5.0822e-21,0,9.3403e-05,2.2573e-18,3.7352e-06,3.7352e-06,1,0.941,1,0.025,0
2.3352e-06,3.4695e-20,0.99,0.000942,0,0.013827,-1.1874e-15,4.2352e-21,0,9.3403e-05,-3.4262e-19,3.7352e-06,3.7352e-06,1,0.942,1,0.025,0
2.3352e-06,2.0249e-20,0.99,0.000943,0,0.013867,-1.1909e-15,4.6587e-21,0,9.3403e-05,-5.4551e-18,3.7352e-06,3.7352e-06,1,0.943,1,0.025,0
2.3352e-06,-5.376e-20,0.99,0.000944,0,0.013907,-1.19e-15,3.3881e-21,0,9.3403e-05,1.3084e-18,3.7352e-06,3.7352e-06,1,0.944,1,0.025,0
2.3352e-06,-1.7761e-20,0.99,0.000945,0,0.013947,-1.1868e-15,3.3881e-21,0,9.3403e-05,5.0995e-18,3.7352e-06,3.7352e-06,1,0.945,1,0.025,0
2.3352e-06,9.7303e-20,0.99,0.000946,0,0.013987,-1.1909e-15,5.5057e-21,0,9.3403e-05,-6.3984e-18,3.7352e-06,3.7352e-06,1,0.946,1,0.025,0
2.3352e-06,1.0715e-19,0.99,0.000947,0,0.014027,-1.1919e-15,3.8116e-21,0,9.3403e-05,-1.6942e-18,3.7352e-06,3.7352e-06,1,0.947,1,0.025,0
2.3352e-06,2.9084e-20,0.99,0.000948,0,0.014067,-1.1943e-15,5.0822e-21,0,9.3403e-05,-3.7405e-18,3.7352e-06,3.7352e-06,1,0.948,1,0.025,0
2.3352e-06,6.4851e-22,0.99,0.000949,0,0.014107,-1.1977e-15,4.6587e-21,0,9.3403e-05,-5.4891e-18,3.7352e-06,3.7352e-06,1,0.949,1,0.025,0
2.3352e-06,2.6754e-20,0.99,0.00095,0,0.014147,-1.1921e-15,4.6587e-21,0,9.3403e-05,8.7551e-18,3.7352e-06,3.7352e-06,1,0.95,1,0.025,0
2.3352e-06,-1.8597e-19,0.99,0.000951,0,0.014187,-1.1917e-15,5.0822e-21,0,9.3403e-05,7.2008e-19,3.7352e-06,3.7352e-06,1,0.951,1,0.025,0
2.3352e-06,-5.1219e-21,0.99,0.000952,0,0.014227,-1.1913e-15,4.2352e-21,0,9.3403e-05,7.3759e-19,3.7352e-06,3.7352e-06,1,0.952,1,0.025,0
2.3352e-06,2.5259e-20,0.99,0.000953,0,0.014267,-1.1915e-15,3.8116e-21,0,9.3403e-05,-3.5781e-19,3.7352e-06,3.7352e-06,1,0.953,1,0.025,0
2.3352e-06,4.5859e-20,0.99,0.000954,0,0.014306,-1.1941e-15,4.2352e-21,0,9.3403e-05,-4.0923e-18,3.7352e-06,3.7352e-06,1,0.954,1,0.025,0
2.3352e-06,1.8886e-20,0.99,0.000955,0,0.014346,-1.1906e-15,5.5057e-21,0,9.3403e-05,5.4107e-18,3.7352e-06,3.7352e-06,1,0.955,1,0.025,0
2.3352e-06,-3.5271e-21,0.99,0.000956,0,0.014386,-1.193e-15,3.3881e-21,0,9.3403e-05,-3.6694e-18,3.7352e-06,3.7352e-06,1,0.956,1,0.025,0
2.3352e-06,5.1756e-19,0.99,0.000957,0,0.014426,-1.2018e-15,4.6587e-21,0,9.3403e-05,-1.3835e-17,3.7351e-06,3.7351e-06,1,0.957,1,0.025,0
2.3352e-06,3.093e-20,0.99,0.000958,0,0.014466,-1.1986e-15,4.2352e-21,0,9.3403e-05,4.9481e-18,3.7351e-06,3.7351e-06,1,0.958,1,0.025,0
2.3352e-06,-2.5146e-21,0.99,0.000959,0,0.014506,-1.2035e-15,4.6587e-21,0,9.3403e-05,-7.7628e-18,3.7351e-06,3.7351e-06,1,0.959,1,0.025,0
2.3352e-06,-2.2883e-20,0.99,0.00096,0,0.014546,-1.2016e-15,4.2352e-21,0,9.3403e-05,3.0134e-18,3.7351e-06,3.7351e-06,1,0.96,1,0.025,0
2.3352e-06,9.2542e-19,0.99,0.000961,0,0.014586,-1.2284e-15,5.0822e-21,0,9.3403e-05,-4.2194e-17,3.7351e-06,3.7351e-06,1,0.961,1,0.025,0
2.3352e-06,5.0662e-19,0.99,0.000962,0,0.014626,-1.2387e-15,4.6587e-21,0,9.3403e-05,-1.6581e-17,3.7351e-06,3.7351e-06,1,0.962,1,0.025,0
2.3352e-06,3.2051e-18,0.99,0.000963,0,0.014666,-1.322e-15,4.2352e-21,0,9.3403e-05,-1.311e-16,3.7351e-06,3.7351e-06,1,0.963,1,0.025,0
2.3352e-06,-4.1101e-20,0.99,0.000964,0,0.014706,-1.3253e-15,3.8116e-21,0,9.3403e-05,-6.3974e-18,3.7351e-06,3.7351e-06,1,0.964,1,0.025,0
2.3352e-06,-1.0028e-19,0.99,0.000965,0,0.014746,-1.327e-15,4.6587e-21,0,9.3403e-05,-2.7898e-18,3.7351e-06,3.7351e-06,1,0.965,1,0.025,0
2.3352e-06,-5.9451e-20,0.99,0.000966,0,0.014786,-1.3272e-15,4.6587e-21,0,9.3403e-05,-3.9309e-19,3.7351e-06,3.7351e-06,1,0.966,1,0.025,0
2.3352e-06,3.0541e-19,0.99,0.000967,0,0.014826,-1.332e-15,4.2352e-21,0,9.3403e-05,-7.451e-18,3.7351e-06,3.7351e-06,1,0.967,1,0.025,0
2.3352e-06,1.0493e-19,0.99,0.000968,0,0.014866,-1.3363e-15,4.2352e-21,0,9.3403e-05,-6.7912e-18,3.7351e-06,3.7351e-06,1,0.968,1,0.025,0
2.3352e-06,-1.346e-20,0.99,0.000969,0,0.014906,-1.3333e-15,4.2352e-21,0,9.3403e-05,4.6534e-18,3.7351e-06,3.7351e-06,1,0.969,1,0.025,0
2.3352e-06,1.8538e-19,0.99,0.00097,0,0.014946,-1.3425e-15,5.0822e-21,0,9.3403e-05,-1.4482e-17,3.7351e-06,3.7351e-06,1,0.97,1,0.025,0
2.3352e-06,4.2761e-18,0.99,0.000971,0,0.014986,-1.4416e-15,4.6587e-21,0,9.3403e-05,-1.5595e-16,3.7351e-06,3.7351e-06,1,0.971,1,0.025,0
2.3352e-06,-1.4157e-19,0.99,0.000972,0,0.015026,-1.4475e-15,4.2352e-21,0,9.3403e-05,-1.0735e-17,3.7351e-06,3.7351e-06,1,0.972,1,0.025,0
2.3352e-06,3.4199e-19,0.99,0.000973,0,0.015065,-1.4567e-15,4.6587e-21,0,9.3403e-05,-1.4636e-17,3.7351e-06,3.7351e-06,1,0.973,1,0.025,0
2.3352e-06,-6.5268e-20,0.99,0.000974,0,0.015105,-1.455e-15,5.5057e-21,0,9.3403e-05,2.5795e-18,3.7351e-06,3.7351e-06,1,0.974,1,0.025,0
2.3352e-06,1.2427e-18,0.99,0.000975,0,0.015145,-1.4859e-15,4.6587e-21,0,9.3403e-05,-4.855e-17,3.7351e-06,3.7351e-06,1,0.975,1,0.025,0
2.3352e-06,4.7275e-20,0.99,0.000976,0,0.015185,-1.4902e-15,4.2352e-21,0,9.3403e-05,-7.3001e-18,3.7351e-06,3.7351e-06,1,0.976,1,0.025,0
2.3352e-06,4.0389e-19,0.99,0.000977,0,0.015225,-1.5049e-15,4.2352e-21,0,9.3403e-05,-2.3047e-17,3.7351e-06,3.7351e-06,1,0.977,1,0.025,0
2.3352e-06,-1.8191e-20,0.99,0.000978,0,0.015265,-1.5042e-15,4.2352e-21,0,9.3403e-05,7.6726e-19,3.7351e-06,3.7351e-06,1,0.978,1,0.025,0
2.3352e-06,2.078e-19,0.99,0.000979,0,0.015305,-1.5113e-15,4.6587e-21,0,9.3403e-05,-1.1065e-17,3.7351e-06,3.7351e-06,1,0.979,1,0.025,0
2.3352e-06,1.1715e-19,0.99,0.00098,0,0.015345,-1.5102e-15,3.8116e-21,0,9.3403e-05,1.5196e-18,3.7351e-06,3.7351e-06,1,0.98,1,0.025,0
2.3352e-06,-3.7627e-20,0.99,0.000981,0,0.015385,-1.5133e-15,4.6587e-21,0,9.3403e-05,-4.7061e-18,3.7351e-06,3.7351e-06,1,0.981,1,0.025,0
2.3352e-06,-1.1541e-20,0.99,0.000982,0,0.015425,-1.5139e-15,3.8116e-21,0,9.3403e-05,-1.0448e-18,3.7351e-06,3.7351e-06,1,0.982,1,0.025,0
2.3352e-06,6.4297e-19,0.99,0.000983,0,0.015465,-1.5294e-15,4.2352e-21,0,9.3403e-05,-2.4347e-17,3.7351e-06,3.7351e-06,1,0.983,1,0.025,0
2.3352e-06,6.8006e-18,0.99,0.000984,0,0.015505,-1.7002e-15,4.2352e-21,0,9.3403e-05,-2.6872e-16,3.7351e-06,3.7351e-06,1,0.984,1,0.025,0
2.3352e-06,-1.5851e-19,0.99,0.000985,0,0.015545,-1.7012e-15,4.2352e-21,0,9.3403e-05,-4.148e-18,3.7351e-06,3.7351e-06,1,0.985,1,0.025,0
2.3352e-06,4.5018e-20,0.99,0.000986,0,0.015585,-1.7031e-15,4.2352e-21,0,9.3403e-05,-3.0346e-18,3.7351e-06,3.7351e-06,1,0.986,1,0.025,0
2.3352e-06,-1.5798e-19,0.99,0.000987,0,0.015625,-1.7059e-15,4.6587e-21,0,9.3403e-05,-4.4843e-18,3.7351e-06,3.7351e-06,1,0.987,1,0.025,0
2.3352e-06,1.8956e-19,0.99,0.000988,0,0.015665,-1.7095e-15,4.2352e-21,0,9.3403e-05,-5.7638e-18,3.7351e-06,3.7351e-06,1,0.988,1,0.025,0
2.3352e-06,1.0623e-19,0.99,0.000989,0,0.015705,-1.7149e-15,3.8116e-21,0,9.3403e-05,-8.5025e-18,3.7351e-06,3.7351e-06,1,0.989,1,0.025,0
2.3352e-06,-1.5058e-18,0.99,0.00099,0,0.015745,-1.6726e-15,3.8116e-21,0,9.3403e-05,6.6378e-17,3.7351e-06,3.7351e-06,1,0.99,1,0.025,0
2.3352e-06,-8.4022e-20,0.99,0.000991,0,0.015785,-1.67e-15,4.6587e-21,0,9.3403e-05,4.7525e-18,3.7351e-06,3.7351e-06,1,0.991,1,0.025,0
2.3352e-06,-1.3334e-20,0.99,0.000992,0,0.015824,-1.6735e-15,4.2352e-21,0,9.3402e-05,-5.4041e-18,3.7351e-06,3.7351e-06,1,0.992,1,0.025,0
2.3352e-06,5.2701e-20,0.99,0.000993,0,0.015864,-1.6739e-15,4.6587e-21,0,9.3402e-05,-6.8657e-19,3.7351e-06,3.7351e-06,1,0.993,1,0.025,0
2.3352e-06,-5.1874e-20,0.99,0.000994,0,0.015904,-1.6741e-15,4.6587e-21,0,9.3402e-05,-3.7206e-19,3.7351e-06,3.7351e-06,1,0.994,1,0.025,0
2.3352e-06,1.0879e-20,0.99,0.000995,0,0.015944,-1.6782e-15,4.2352e-21,0,9.3402e-05,-6.4531e-18,3.7351e-06,3.7351e-06,1,0.995,1,0.025,0
2.3352e-06,-6.8312e-20,0.99,0.000996,0,0.015984,-1.6735e-15,4.2352e-21,0,9.3402e-05,7.3826e-18,3.7351e-06,3.7351e-06,1,0.996,1,0.025,0
2.3352e-06,8.3572e-20,0.99,0.000997,0,0.016024,-1.6681e-15,5.0822e-21,0,9.3402e-05,8.6165e-18,3.7351e-06,3.7351e-06,1,0.997,1,0.025,0
2.3352e-06,-7.485e-20,0.99,0.000998,0,0.016064,-1.6707e-15,4.6587e-21,0,9.3402e-05,-4.0026e-18,3.7351e-06,3.7351e-06,1,0.998,1,0.025,0
2.3352e-06,1.9194e-19,0.99,0.000999,0,0.016104,-1.6804e-15,5.0822e-21,0,9.3402e-05,-1.5299e-17,3.7351e-06,3.7351e-06,1,0.999,1,0.025,0
2.3352e-06,6.2893e-19,0.99,0.001,0,0.016144,-1.6889e-15,3.3881e-21,0,9.3402e-05,-1.3586e-17,3.7351e-06,3.7351e-06,1,1,1,0.025,0
