"NodalForces:0","NodalForces:1","damage","displacement:0","displacement:1","epsilon_xx","epsilon_xy","epsilon_yy","epsilon_zz","sigma_xx","sigma_xy","sigma_yy","sigma_zz","vtkValidPointMask","Time","Point Coordinates:0","Point Coordinates:1","Point Coordinates:2"
0,0,0,0,0,0,0,0,0,0,0,0,0,1,0,1,0.025,0
0.00028571,2.2643e-13,1.5131e-12,1e-06,0,9.9296e-07,-3.2182e-15,2.068e-24,0,0.022985,-5.0569e-11,0.00091915,0.00091915,1,0.001,1,0.025,0
0.00057128,-4.0674e-13,1.5054e-11,2e-06,0,1.9854e-06,-8.3163e-15,6.6174e-24,0,0.045958,-1.3068e-10,0.0018378,0.0018378,1,0.002,1,0.025,0
0.00085705,-3.902e-15,8.9877e-11,3e-06,0,2.9786e-06,7.0016e-18,9.9262e-24,0,0.068948,1.1002e-13,0.0027572,0.0027572,1,0.003,1,0.025,0
0.0011426,1.0321e-11,3.0758e-10,4e-06,0,3.9712e-06,-7.8646e-15,1.9852e-23,0,0.091923,-1.2358e-10,0.003676,0.003676,1,0.004,1,0.025,0
0.0014283,1.8785e-16,7.8712e-10,5e-06,0,4.9638e-06,-2.4432e-18,2.647e-23,0,0.1149,-3.8391e-14,0.0045948,0.0045948,1,0.005,1,0.025,0
0.001714,1.6455e-14,1.6842e-09,6e-06,0,5.9569e-06,-2.5798e-16,2.647e-23,0,0.13789,-4.0537e-12,0.0055141,0.0055141,1,0.006,1,0.025,0
0.0019997,1.6412e-17,3.1897e-09,7e-06,0,6.9496e-06,-1.2369e-19,2.9779e-23,0,0.16087,-1.9438e-15,0.006433,0.006433,1,0.007,1,0.025,0
0.0022853,2.7345e-13,5.5321e-09,8e-06,0,7.9424e-06,6.089e-16,3.9705e-23,0,0.18385,9.5678e-12,0.007352,0.007352,1,0.008,1,0.025,0
0.002571,-4.3502e-15,8.976e-09,9e-06,0,8.9354e-06,-5.3817e-17,4.6322e-23,0,0.20683,-8.4564e-13,0.0082712,0.0082712,1,0.009,1,0.025,0
0.0028566,1.7828e-17,1.3819e-08,1e-05,0,9.928e-06,-2.1495e-19,4.6322e-23,0,0.22981,-3.378e-15,0.00919,0.00919,1,0.01,1,0.025,0
0.0031423,1.2584e-11,2.0403e-08,1.1e-05,0,1.0921e-05,2.3243e-13,5.294e-23,0,0.25279,3.6523e-09,0.010109,0.010109,1,0.011,1,0.025,0
0.003428,-8.8402e-15,2.9097e-08,1.2e-05,0,1.1914e-05,-6.5464e-17,4.6322e-23,0,0.27578,-1.0287e-12,0.011028,0.011028,1,0.012,1,0.025,0
0.0037137,-1.2744e-13,4.0312e-08,1.3e-05,0,1.2907e-05,1.502e-15,5.9557e-23,0,0.29876,2.3601e-11,0.011947,0.011947,1,0.013,1,0.025,0
0.0039994,1.0053e-16,5.4494e-08,1.4e-05,0,1.3899e-05,-9.5397e-20,6.6174e-23,0,0.32174,-1.5533e-15,0.012866,0.012866,1,0.014,1,0.025,0
0.0042851,5.733e-16,7.2128e-08,1.5e-05,0,1.4893e-05,3.7491e-18,7.2792e-23,0,0.34473,5.8857e-14,0.013786,0.013786,1,0.015,1,0.025,0
0.0045707,-6.5419e-14,9.3722e-08,1.6e-05,0,1.5885e-05,2.5442e-16,3.9705e-23,0,0.36771,3.9977e-12,0.014704,0.014704,1,0.016,1,0.025,0
0.0048565,1.9665e-17,1.1985e-07,1.7e-05,0,1.6878e-05,-2.4741e-19,7.2792e-23,0,0.39069,-3.9426e-15,0.015624,0.015624,1,0.017,1,0.025,0
0.0051421,2.228e-17,1.5107e-07,1.8e-05,0,1.7871e-05,1.2284e-19,7.9409e-23,0,0.41367,1.875e-15,0.016543,0.016543,1,0.018,1,0.025,0
0.0054279,-9.5843e-17,1.8805e-07,1.9e-05,0,1.8864e-05,-3.0021e-19,7.9409e-23,0,0.43666,-4.7731e-15,0.017462,0.017462,1,0.019,1,0.025,0
0.0057135,-2.0941e-14,2.3142e-07,2e-05,0,1.9857e-05,-3.1079e-17,7.9409e-23,0,0.45964,-4.8841e-13,0.018381,0.018381,1,0.02,1,0.025,0
0.0059993,1.6431e-16,2.8191e-07,2.1e-05,0,2.085e-05,-6.2747e-18,9.2644e-23,0,0.48263,-9.8654e-14,0.0193,0.0193,1,0.021,1,0.025,0
0.006285,3.8288e-14,3.4023e-07,2.2e-05,0,2.1843e-05,-1.0717e-14,7.9409e-23,0,0.50561,-1.684e-10,0.020219,0.020219,1,0.022,1,0.025,0
0.0065707,-1.8013e-12,4.0716e-07,2.3e-05,0,2.2836e-05,-1.4088e-14,9.2644e-23,0,0.5286,-2.2137e-10,0.021138,0.021138,1,0.023,1,0.025,0
0.0068564,-3.1738e-13,4.8352e-07,2.4e-05,0,2.3829e-05,-8.6836e-17,9.2644e-23,0,0.55158,-1.3644e-12,0.022058,0.022058,1,0.024,1,0.025,0
0.0071422,3.825e-14,5.7016e-07,2.5e-05,0,2.4822e-05,1.9213e-16,7.9409e-23,0,0.57457,3.019e-12,0.022977,0.022977,1,0.025,1,0.025,0
0.0074279,1.7742e-15,6.6791e-07,2.6e-05,0,2.5815e-05,4.401e-17,7.9409e-23,0,0.59755,6.9161e-13,0.023896,0.023896,1,0.026,1,0.025,0
0.0077136,-2.5214e-12,7.7777e-07,2.7e-05,0,2.6808e-05,-1.2553e-14,1.0588e-22,0,0.62054,-1.9725e-10,0.024815,0.024815,1,0.027,1,0.025,0
0.0079993,5.2009e-16,9.0062e-07,2.8e-05,0,2.7801e-05,-2.3039e-18,1.5882e-22,0,0.64353,-3.6013e-14,0.025734,0.025734,1,0.028,1,0.025,0
0.0082851,-5.8719e-13,1.0375e-06,2.9e-05,0,2.8794e-05,3.9956e-15,1.9852e-22,0,0.66652,6.2784e-11,0.026654,0.026654,1,0.029,1,0.025,0
0.0085709,1.813e-15,1.1894e-06,3e-05,0,2.9788e-05,-2.541e-18,1.8529e-22,0,0.68951,-3.9801e-14,0.027573,0.027573,1,0.03,1,0.025,0
0.0088558,-1.766e-14,1.3533e-06,3.1e-05,0,3.0777e-05,5.4638e-15,1.1911e-22,0,0.7124,8.5854e-11,0.028489,0.028489,1,0.031,1,0.025,0
0.0091424,5.855e-14,1.5381e-06,3.2e-05,0,3.1774e-05,4.0729e-17,1.1911e-22,0,0.73548,6.4001e-13,0.029412,0.029412,1,0.032,1,0.025,0
0.0094281,-4.0143e-17,1.7412e-06,3.3e-05,0,3.2767e-05,-1.3476e-18,1.5882e-22,0,0.75847,-2.1154e-14,0.030331,0.030331,1,0.033,1,0.025,0
0.009713,-1.3978e-12,1.9584e-06,3.4e-05,0,3.3756e-05,-1.0115e-14,1.0588e-22,0,0.78135,-1.5894e-10,0.031246,0.031246,1,0.034,1,0.025,0
0.0099996,1.3409e-16,2.2012e-06,3.5e-05,0,3.4753e-05,-1.1772e-18,1.5882e-22,0,0.80444,-1.8286e-14,0.032169,0.032169,1,0.035,1,0.025,0
0.010285,-1.433e-12,2.4659e-06,3.6e-05,0,3.5747e-05,-2.5613e-14,1.5882e-22,0,0.82744,-4.0247e-10,0.033089,0.033089,1,0.036,1,0.025,0
0.010571,6.8173e-15,2.7502e-06,3.7e-05,0,3.6737e-05,5.1242e-17,1.0588e-22,0,0.85036,8.0603e-13,0.034006,0.034006,1,0.037,1,0.025,0
0.010856,9.5444e-13,3.0585e-06,3.8e-05,0,3.773e-05,-5.1652e-15,1.8529e-22,0,0.87335,-8.1161e-11,0.034925,0.034925,1,0.038,1,0.025,0
0.011143,-4.0765e-14,3.3962e-06,3.9e-05,0,3.8726e-05,-4.2211e-16,2.1176e-22,0,0.8964,-6.6317e-12,0.035847,0.035847,1,0.039,1,0.025,0
0.011428,3.7313e-16,3.7565e-06,4e-05,0,3.9717e-05,-1.7329e-18,1.8529e-22,0,0.91932,-2.6243e-14,0.036763,0.036763,1,0.04,1,0.025,0
0.011714,5.2676e-16,4.1449e-06,4.1e-05,0,4.071e-05,-1.7038e-18,1.5882e-22,0,0.94231,-2.5797e-14,0.037683,0.037683,1,0.041,1,0.025,0
0.012,-8.41e-12,4.5677e-06,4.2e-05,0,4.1706e-05,9.8299e-14,1.8529e-22,0,0.96537,1.5446e-09,0.038605,0.038605,1,0.042,1,0.025,0
0.012285,1.1128e-12,5.0166e-06,4.3e-05,0,4.2696e-05,-2.2786e-15,1.8529e-22,0,0.98828,-3.5808e-11,0.039521,0.039521,1,0.043,1,0.025,0
0.012571,-2.3167e-15,5.4978e-06,4.4e-05,0,4.3689e-05,3.92e-18,1.8529e-22,0,1.0113,5.7066e-14,0.04044,0.04044,1,0.044,1,0.025,0
0.012857,-7.3972e-15,6.0191e-06,4.5e-05,0,4.4686e-05,-1.9711e-16,1.8529e-22,0,1.0343,-3.1018e-12,0.041363,0.041363,1,0.045,1,0.025,0
0.013143,-2.7099e-15,6.5699e-06,4.6e-05,0,4.5676e-05,1.0537e-17,1.8529e-22,0,1.0572,1.6104e-13,0.042279,0.042279,1,0.046,1,0.025,0
0.013428,1.3136e-14,7.1577e-06,4.7e-05,0,4.6669e-05,1.4871e-16,2.647e-22,0,1.0802,2.3321e-12,0.043198,0.043198,1,0.047,1,0.025,0
0.013715,-5.2709e-14,7.7917e-06,4.8e-05,0,4.7666e-05,-2.2516e-16,1.5882e-22,0,1.1033,-3.5425e-12,0.044121,0.04412,1,0.048,1,0.025,0
0.014001,1.5439e-15,8.4669e-06,4.9e-05,0,4.866e-05,8.234e-18,2.1176e-22,0,1.1263,1.2482e-13,0.04504,0.04504,1,0.049,1,0.025,0
0.014286,2.781e-16,9.1763e-06,5e-05,0,4.9649e-05,-1.4155e-18,1.5882e-22,0,1.1492,-2.6822e-14,0.045955,0.045955,1,0.05,1,0.025,0
0.014571,6.5328e-14,9.9293e-06,5.1e-05,0,5.0643e-05,1.0492e-15,2.1176e-22,0,1.1722,1.6482e-11,0.046874,0.046874,1,0.051,1,0.025,0
0.014857,-3.0152e-14,1.0728e-05,5.2e-05,0,5.1636e-05,1.0193e-16,1.5882e-22,0,1.1951,1.5968e-12,0.047793,0.047793,1,0.052,1,0.025,0
0.015144,4.8247e-16,1.1585e-05,5.3e-05,0,5.2634e-05,-3.0397e-18,2.3823e-22,0,1.2182,-5.2625e-14,0.048717,0.048716,1,0.053,1,0.025,0
0.015429,7.2502e-15,1.248e-05,5.4e-05,0,5.3623e-05,3.3037e-16,1.8529e-22,0,1.2411,5.1863e-12,0.049632,0.049631,1,0.054,1,0.025,0
0.015714,2.522e-13,1.3426e-05,5.5e-05,0,5.4616e-05,-6.4776e-16,3.1764e-22,0,1.2641,-1.0183e-11,0.050551,0.05055,1,0.055,1,0.025,0
0.016001,3.5884e-16,1.4438e-05,5.6e-05,0,5.5615e-05,-2.3757e-18,2.1176e-22,0,1.2872,-4.2294e-14,0.051474,0.051473,1,0.056,1,0.025,0
0.016287,3.773e-16,1.5506e-05,5.7e-05,0,5.6609e-05,-2.6719e-18,2.1176e-22,0,1.3101,-4.6983e-14,0.052393,0.052392,1,0.057,1,0.025,0
0.016572,-8.7103e-15,1.6618e-05,5.8e-05,0,5.7597e-05,-1.2309e-16,2.1176e-22,0,1.333,-1.9391e-12,0.053307,0.053306,1,0.058,1,0.025,0
0.016857,-5.0241e-14,1.7789e-05,5.9e-05,0,5.859e-05,-5.0953e-17,2.9117e-22,0,1.356,-8.0562e-13,0.054226,0.054225,1,0.059,1,0.025,0
0.017143,9.8362e-14,1.9021e-05,6e-05,0,5.9584e-05,1.4083e-15,2.9117e-22,0,1.3789,2.2123e-11,0.055144,0.055143,1,0.06,1,0.025,0
0.01743,3.9113e-16,2.0331e-05,6.1e-05,0,6.0583e-05,4.0906e-18,2.9117e-22,0,1.402,5.8814e-14,0.056068,0.056067,1,0.061,1,0.025,0
0.017716,-8.9779e-15,2.1708e-05,6.2e-05,0,6.1577e-05,5.5811e-17,2.3823e-22,0,1.425,8.7144e-13,0.056987,0.056985,1,0.062,1,0.025,0
0.018,3.628e-13,2.3137e-05,6.3e-05,0,6.2565e-05,-6.0173e-15,2.647e-22,0,1.4478,-9.4553e-11,0.0579,0.057898,1,0.063,1,0.025,0
0.018286,-1.0314e-12,2.4634e-05,6.4e-05,0,6.3558e-05,2.0652e-16,1.8529e-22,0,1.4708,3.2421e-12,0.058818,0.058816,1,0.064,1,0.025,0
0.018572,-3.4049e-15,2.6204e-05,6.5e-05,0,6.4552e-05,2.2778e-17,2.1176e-22,0,1.4937,3.549e-13,0.059736,0.059734,1,0.065,1,0.025,0
0.018858,-1.8982e-14,2.7868e-05,6.6e-05,0,6.5552e-05,2.3733e-16,3.4411e-22,0,1.5168,3.726e-12,0.06066,0.060658,1,0.066,1,0.025,0
0.019144,8.0155e-16,2.9609e-05,6.7e-05,0,6.6546e-05,-2.0058e-18,3.1764e-22,0,1.5398,-3.4735e-14,0.061579,0.061576,1,0.067,1,0.025,0
0.019428,-1.6583e-12,3.1408e-05,6.8e-05,0,6.7533e-05,1.6546e-15,2.9117e-22,0,1.5626,2.5997e-11,0.06249,0.062487,1,0.068,1,0.025,0
0.019714,1.0223e-15,3.3289e-05,6.9e-05,0,6.8526e-05,-1.0301e-18,2.647e-22,0,1.5855,-1.8384e-14,0.063407,0.063404,1,0.069,1,0.025,0
0.019999,9.2184e-16,3.5252e-05,7e-05,0,6.952e-05,-9.2167e-19,2.647e-22,0,1.6084,-1.6764e-14,0.064325,0.064321,1,0.07,1,0.025,0
0.020286,9.0368e-16,3.7328e-05,7.1e-05,0,7.0521e-05,-4.8798e-19,2.647e-22,0,1.6315,-1.0038e-14,0.065249,0.065245,1,0.071,1,0.025,0
0.020572,-5.0951e-14,3.9492e-05,7.2e-05,0,7.1515e-05,1.5747e-16,3.7058e-22,0,1.6545,2.4718e-12,0.066166,0.066162,1,0.072,1,0.025,0
0.020856,9.8955e-16,4.1722e-05,7.3e-05,0,7.2501e-05,-2.5247e-18,2.647e-22,0,1.6772,-4.2246e-14,0.067076,0.067071,1,0.073,1,0.025,0
0.021141,1.5788e-13,4.4045e-05,7.4e-05,0,7.3494e-05,-1.409e-15,3.7058e-22,0,1.7001,-2.214e-11,0.067992,0.067987,1,0.074,1,0.025,0
0.021427,-1.1621e-12,4.6464e-05,7.5e-05,0,7.4488e-05,-6.026e-15,3.1764e-22,0,1.723,-9.468e-11,0.068908,0.068903,1,0.075,1,0.025,0
0.021714,-1.1363e-14,4.9014e-05,7.6e-05,0,7.549e-05,-1.2032e-16,3.7058e-22,0,1.7461,-1.8861e-12,0.069833,0.069826,1,0.076,1,0.025,0
0.021999,3.973e-15,5.1665e-05,7.7e-05,0,7.6484e-05,3.3637e-17,3.7058e-22,0,1.769,5.3271e-13,0.070749,0.070742,1,0.077,1,0.025,0
0.022283,8.4043e-13,5.4389e-05,7.8e-05,0,7.7468e-05,5.086e-14,3.7058e-22,0,1.7917,7.991e-10,0.071656,0.071648,1,0.078,1,0.025,0
0.022568,-2.0508e-15,5.722e-05,7.9e-05,0,7.8462e-05,-2.0039e-17,3.1764e-22,0,1.8145,-3.563e-13,0.072571,0.072563,1,0.079,1,0.025,0
0.022853,-5.2631e-14,6.016e-05,8e-05,0,7.9455e-05,9.6948e-16,3.1764e-22,0,1.8374,1.519e-11,0.073486,0.073477,1,0.08,1,0.025,0
0.02314,-6.9323e-15,6.325e-05,8.1e-05,0,8.0458e-05,2.7284e-17,3.7058e-22,0,1.8605,3.8614e-13,0.07441,0.0744,1,0.081,1,0.025,0
0.023425,6.7183e-16,6.6457e-05,8.2e-05,0,8.1452e-05,1.6735e-17,3.7058e-22,0,1.8833,2.202e-13,0.075324,0.075314,1,0.082,1,0.025,0
0.023708,4.01e-13,6.9743e-05,8.3e-05,0,8.2436e-05,-2.9718e-15,3.7058e-22,0,1.9059,-4.6734e-11,0.076229,0.076217,1,0.083,1,0.025,0
0.023993,1.4914e-15,7.315e-05,8.4e-05,0,8.3429e-05,3.1982e-18,3.7058e-22,0,1.9287,1.0199e-14,0.077142,0.07713,1,0.084,1,0.025,0
0.024278,4.8076e-13,7.6681e-05,8.5e-05,0,8.4422e-05,1.5958e-15,3.7058e-22,0,1.9515,2.503e-11,0.078055,0.078042,1,0.085,1,0.025,0
0.024565,5.1909e-14,8.0385e-05,8.6e-05,0,8.5427e-05,-1.0661e-14,4.2352e-22,0,1.9746,-1.6754e-10,0.078978,0.078963,1,0.086,1,0.025,0
0.024849,1.3055e-13,8.4219e-05,8.7e-05,0,8.642e-05,-9.8251e-18,3.1764e-22,0,1.9974,-1.8393e-13,0.07989,0.079874,1,0.087,1,0.025,0
0.025132,3.0983e-15,8.8139e-05,8.8e-05,0,8.7402e-05,3.8937e-20,3.1764e-22,0,2.0199,-2.9174e-14,0.080791,0.080774,1,0.088,1,0.025,0
0.025416,3.311e-15,9.2196e-05,8.9e-05,0,8.8395e-05,-2.7846e-19,2.647e-22,0,2.0426,-3.4397e-14,0.081702,0.081684,1,0.089,1,0.025,0
0.025701,7.3809e-15,9.6392e-05,9e-05,0,8.9388e-05,7.7084e-17,3.7058e-22,0,2.0653,1.1807e-12,0.082613,0.082593,1,0.09,1,0.025,0
0.025985,2.8762e-15,0.00010073,9.1e-05,0,9.0381e-05,-1.5484e-17,3.1764e-22,0,2.0881,-2.7398e-13,0.083522,0.083501,1,0.091,1,0.025,0
0.026272,4.1134e-15,0.00010527,9.2e-05,0,9.1386e-05,8.2633e-18,3.7058e-22,0,2.111,9.8852e-14,0.084443,0.084421,1,0.092,1,0.025,0
0.026556,3.3953e-15,0.00010996,9.3e-05,0,9.2379e-05,-4.4638e-18,3.7058e-22,0,2.1337,-1.014e-13,0.085352,0.085328,1,0.093,1,0.025,0
0.026838,2.9041e-15,0.00011474,9.4e-05,0,9.3359e-05,-7.6738e-18,4.2352e-22,0,2.1561,-1.5212e-13,0.086249,0.086223,1,0.094,1,0.025,0
0.027121,-8.0923e-15,0.00011968,9.5e-05,0,9.4352e-05,5.2042e-17,3.7058e-22,0,2.1787,7.8573e-13,0.087156,0.087128,1,0.095,1,0.025,0
0.027405,4.1662e-15,0.00012478,9.6e-05,0,9.5344e-05,-5.1144e-18,3.7058e-22,0,2.2014,-1.126e-13,0.088063,0.088033,1,0.096,1,0.025,0
0.027689,3.0272e-13,0.00013004,9.7e-05,0,9.6337e-05,7.7935e-15,3.1764e-22,0,2.224,1.224e-10,0.088968,0.088937,1,0.097,1,0.025,0
0.027975,-2.9724e-13,0.00013553,9.8e-05,0,9.7343e-05,8.4225e-16,3.7058e-22,0,2.2469,1.3184e-11,0.089887,0.089853,1,0.098,1,0.025,0
0.028259,-8.7808e-15,0.00014119,9.9e-05,0,9.8336e-05,-4.2342e-17,3.1764e-22,0,2.2694,-7.1387e-13,0.090791,0.090755,1,0.099,1,0.025,0
0.028539,-1.638e-15,0.00014696,0.0001,0,9.9313e-05,1.1022e-16,3.1764e-22,0,2.2916,1.6823e-12,0.091681,0.091642,1,0.1,1,0.025,0
0.028822,-5.2185e-12,0.0001529,0.000101,0,0.00010031,-2.3921e-14,5.294e-22,0,2.3141,-3.7579e-10,0.092583,0.092542,1,0.101,1,0.025,0
0.029105,-1.0792e-11,0.00015902,0.000102,0,0.0001013,1.1508e-13,3.7058e-22,0,2.3366,1.8077e-09,0.093485,0.093441,1,0.102,1,0.025,0
0.029388,2.369e-15,0.00016532,0.000103,0,0.00010229,2.8799e-16,3.1764e-22,0,2.359,4.2999e-12,0.094385,0.094338,1,0.103,1,0.025,0
0.029671,-2.4342e-13,0.00017181,0.000104,0,0.00010328,-1.961e-16,4.7646e-22,0,2.3814,-3.304e-12,0.095285,0.095235,1,0.104,1,0.025,0
0.029956,5.7079e-15,0.00017857,0.000105,0,0.00010429,4.207e-17,4.7646e-22,0,2.4042,4.3735e-13,0.096198,0.096145,1,0.105,1,0.025,0
0.030239,6.3329e-15,0.00018553,0.000106,0,0.00010528,4.6596e-17,3.1764e-22,0,2.4266,5.0787e-13,0.097096,0.097039,1,0.106,1,0.025,0
0.030517,5.9672e-15,0.0001926,0.000107,0,0.00010625,3.5553e-17,4.2352e-22,0,2.4485,3.3381e-13,0.097977,0.097917,1,0.107,1,0.025,0
0.030799,6.8301e-15,0.00019987,0.000108,0,0.00010724,4.0746e-17,3.1764e-22,0,2.4708,4.1476e-13,0.098871,0.098808,1,0.108,1,0.025,0
0.031081,9.4828e-15,0.00020734,0.000109,0,0.00010823,5.7037e-18,5.294e-22,0,2.493,-1.3625e-13,0.099765,0.099698,1,0.109,1,0.025,0
0.031362,4.7174e-14,0.00021503,0.00011,0,0.00010922,1.4501e-15,5.8234e-22,0,2.5152,2.2549e-11,0.10066,0.10059,1,0.11,1,0.025,0
0.031644,-4.9853e-14,0.00022292,0.000111,0,0.00011021,4.2842e-16,5.294e-22,0,2.5374,6.4968e-12,0.10155,0.10147,1,0.111,1,0.025,0
0.031925,-9.8355e-14,0.00023103,0.000112,0,0.0001112,3.1676e-17,4.7646e-22,0,2.5595,2.6409e-13,0.10244,0.10236,1,0.112,1,0.025,0
0.032205,-9.9538e-14,0.00023936,0.000113,0,0.00011219,-1.2717e-16,4.7646e-22,0,2.5816,-2.2302e-12,0.10333,0.10324,1,0.113,1,0.025,0
0.032486,4.519e-13,0.00024792,0.000114,0,0.00011318,2.4427e-15,4.2352e-22,0,2.6036,3.8125e-11,0.10421,0.10412,1,0.114,1,0.025,0
0.032766,2.4073e-13,0.0002567,0.000115,0,0.00011417,-2.0251e-14,4.2352e-22,0,2.6256,-3.1831e-10,0.1051,0.105,1,0.115,1,0.025,0
0.033046,-5.4677e-12,0.00026571,0.000116,0,0.00011516,2.619e-15,6.3527e-22,0,2.6476,4.0966e-11,0.10598,0.10588,1,0.116,1,0.025,0
0.033326,-5.0681e-14,0.00027496,0.000117,0,0.00011615,2.2477e-16,4.2352e-22,0,2.6695,3.3538e-12,0.10686,0.10676,1,0.117,1,0.025,0
0.033605,-3.9836e-13,0.00028445,0.000118,0,0.00011714,8.9862e-16,4.7646e-22,0,2.6913,1.394e-11,0.10774,0.10763,1,0.118,1,0.025,0
0.033884,7.0842e-15,0.00029418,0.000119,0,0.00011812,-1.1448e-17,5.294e-22,0,2.7131,-3.5743e-13,0.10862,0.1085,1,0.119,1,0.025,0
0.034163,-1.9025e-13,0.00030415,0.00012,0,0.00011911,4.469e-16,7.4115e-22,0,2.7348,6.8411e-12,0.1095,0.10937,1,0.12,1,0.025,0
0.034442,5.2283e-14,0.00031438,0.000121,0,0.0001201,2.4573e-16,6.8821e-22,0,2.7565,3.6785e-12,0.11037,0.11024,1,0.121,1,0.025,0
0.03472,8.3664e-15,0.00032487,0.000122,0,0.00012109,-1.3523e-17,3.7058e-22,0,2.7781,-3.9489e-13,0.11124,0.1111,1,0.122,1,0.025,0
0.034998,-1.0529e-12,0.00033562,0.000123,0,0.00012207,-5.9862e-15,4.2352e-22,0,2.7997,-9.4147e-11,0.11211,0.11197,1,0.123,1,0.025,0
0.035275,1.7828e-14,0.00034663,0.000124,0,0.00012306,-1.3835e-16,4.7646e-22,0,2.8212,-2.2885e-12,0.11298,0.11282,1,0.124,1,0.025,0
0.035552,6.0466e-14,0.00035791,0.000125,0,0.00012404,-4.6425e-16,4.7646e-22,0,2.8426,-7.4064e-12,0.11384,0.11368,1,0.125,1,0.025,0
0.035829,1.3522e-14,0.00036946,0.000126,0,0.00012503,1.1132e-17,3.7058e-22,0,2.864,5.9243e-14,0.11471,0.11454,1,0.126,1,0.025,0
0.036105,1.6944e-12,0.00038129,0.000127,0,0.00012601,5.5042e-15,6.8821e-22,0,2.8853,8.6268e-11,0.11557,0.11539,1,0.127,1,0.025,0
0.036381,1.1751e-14,0.0003934,0.000128,0,0.000127,-2.1747e-17,3.7058e-22,0,2.9065,-5.3033e-13,0.11643,0.11624,1,0.128,1,0.025,0
0.036657,1.167e-14,0.0004058,0.000129,0,0.00012798,-2.2641e-17,3.7058e-22,0,2.9277,-5.4554e-13,0.11728,0.11708,1,0.129,1,0.025,0
0.036932,3.5334e-12,0.00041849,0.00013,0,0.00012896,4.2961e-16,4.7646e-22,0,2.9487,6.5255e-12,0.11814,0.11793,1,0.13,1,0.025,0
0.03719,-2.6031e-14,0.0004313,0.000131,0,0.00012986,-8.99e-16,4.2352e-22,0,2.9678,-1.4337e-11,0.11891,0.11869,1,0.131,1,0.025,0
0.037464,3.5816e-13,0.00044442,0.000132,0,0.00013084,-3.5168e-16,5.294e-22,0,2.9888,-5.7441e-12,0.11976,0.11953,1,0.132,1,0.025,0
0.037737,-7.6675e-13,0.00045784,0.000133,0,0.00013182,1.538e-14,6.3527e-22,0,3.0097,2.4125e-10,0.12061,0.12037,1,0.133,1,0.025,0
0.03801,-2.568e-15,0.00047156,0.000134,0,0.00013279,-3.5814e-17,3.7058e-22,0,3.0307,-8.8061e-13,0.12145,0.12121,1,0.134,1,0.025,0
0.038283,-9.3995e-14,0.00048559,0.000135,0,0.00013377,-4.8296e-16,6.8821e-22,0,3.0516,-7.9017e-12,0.1223,0.12204,1,0.135,1,0.025,0
0.038556,3.9015e-13,0.00049992,0.000136,0,0.00013474,3.0703e-15,6.8821e-22,0,3.0725,4.7859e-11,0.12315,0.12288,1,0.136,1,0.025,0
0.038827,1.1181e-13,0.00051458,0.000137,0,0.00013572,9.8807e-16,4.2352e-22,0,3.0933,1.5139e-11,0.12399,0.12371,1,0.137,1,0.025,0
0.039099,1.6978e-14,0.00052955,0.000138,0,0.00013669,-2.8377e-17,7.4115e-22,0,3.1142,-8.2611e-13,0.12484,0.12455,1,0.138,1,0.025,0
0.03937,1.8935e-14,0.00054485,0.000139,0,0.00013766,-4.22e-17,5.294e-22,0,3.135,-1.0446e-12,0.12568,0.12538,1,0.139,1,0.025,0
0.039641,9.1814e-14,0.00056048,0.00014,0,0.00013863,-2.9745e-16,4.2352e-22,0,3.1558,-5.0556e-12,0.12652,0.12621,1,0.14,1,0.025,0
0.039911,5.1602e-13,0.00057644,0.000141,0,0.0001396,-3.308e-14,7.4115e-22,0,3.1765,-5.1964e-10,0.12736,0.12704,1,0.141,1,0.025,0
0.04018,2.7773e-13,0.00059274,0.000142,0,0.00014056,-3.3046e-16,5.294e-22,0,3.1973,-5.3399e-12,0.1282,0.12787,1,0.142,1,0.025,0
0.040449,-1.053e-14,0.00060938,0.000143,0,0.00014153,-1.1829e-16,8.4703e-22,0,3.218,-2.0083e-12,0.12904,0.1287,1,0.143,1,0.025,0
0.040718,2.5082e-14,0.00062638,0.000144,0,0.00014249,-1.7696e-17,7.4115e-22,0,3.2387,-4.3076e-13,0.12988,0.12953,1,0.144,1,0.025,0
0.040986,-6.7238e-14,0.00064372,0.000145,0,0.00014345,-5.0109e-15,5.294e-22,0,3.2593,-7.8815e-11,0.13072,0.13035,1,0.145,1,0.025,0
0.041254,4.488e-14,0.00066142,0.000146,0,0.00014441,-1.8928e-17,4.2352e-22,0,3.2799,-4.2794e-13,0.13156,0.13118,1,0.146,1,0.025,0
0.04152,3.7495e-15,0.00067949,0.000147,0,0.00014537,-9.3677e-17,7.4115e-22,0,3.3005,-1.6032e-12,0.13239,0.132,1,0.147,1,0.025,0
0.041787,2.6449e-14,0.00069792,0.000148,0,0.00014633,-9.6808e-17,6.3527e-22,0,3.3211,-1.6543e-12,0.13322,0.13283,1,0.148,1,0.025,0
0.042053,8.0734e-14,0.00071673,0.000149,0,0.00014729,3.3227e-16,4.2352e-22,0,3.3416,5.0756e-12,0.13406,0.13365,1,0.149,1,0.025,0
0.042318,2.7864e-14,0.00073591,0.00015,0,0.00014824,-1.0628e-16,6.3527e-22,0,3.3621,-1.8127e-12,0.13489,0.13447,1,0.15,1,0.025,0
0.042582,2.8394e-14,0.00075548,0.000151,0,0.00014919,-1.1356e-16,5.294e-22,0,3.3826,-1.9292e-12,0.13572,0.13529,1,0.151,1,0.025,0
0.042846,1.2853e-13,0.00077543,0.000152,0,0.00015014,-2.5535e-16,6.3527e-22,0,3.4031,-4.158e-12,0.13655,0.1361,1,0.152,1,0.025,0
0.04311,-2.5021e-14,0.00079578,0.000153,0,0.00015109,7.2181e-15,7.4115e-22,0,3.4235,1.1315e-10,0.13738,0.13692,1,0.153,1,0.025,0
0.043372,-2.1308e-13,0.00081653,0.000154,0,0.00015203,-1.2763e-15,7.4115e-22,0,3.4439,-2.0207e-11,0.13821,0.13774,1,0.154,1,0.025,0
0.043634,-1.084e-14,0.00083767,0.000155,0,0.00015298,1.5665e-16,8.4703e-22,0,3.4642,2.2875e-12,0.13903,0.13855,1,0.155,1,0.025,0
0.043895,3.3073e-14,0.00085923,0.000156,0,0.00015392,-1.0236e-16,8.4703e-22,0,3.4845,-1.7818e-12,0.13986,0.13936,1,0.156,1,0.025,0
0.044156,1.1244e-12,0.0008812,0.000157,0,0.00015486,4.2799e-15,6.3527e-22,0,3.5048,6.6973e-11,0.14068,0.14018,1,0.157,1,0.025,0
0.044415,-4.7983e-13,0.00090359,0.000158,0,0.00015579,4.5549e-15,6.3527e-22,0,3.525,7.1213e-11,0.1415,0.14099,1,0.158,1,0.025,0
0.044674,2.9546e-14,0.0009264,0.000159,0,0.00015673,-1.4634e-16,7.4115e-22,0,3.5452,-2.5953e-12,0.14232,0.14179,1,0.159,1,0.025,0
0.044933,2.0267e-14,0.00094964,0.00016,0,0.00015766,2.9434e-16,7.4115e-22,0,3.5654,4.3172e-12,0.14314,0.1426,1,0.16,1,0.025,0
0.04519,3.5316e-14,0.00097332,0.000161,0,0.00015859,-1.8227e-16,6.3527e-22,0,3.5855,-3.1678e-12,0.14396,0.14341,1,0.161,1,0.025,0
0.045446,2.0263e-14,0.00099744,0.000162,0,0.00015951,3.9699e-16,6.3527e-22,0,3.6056,5.9185e-12,0.14478,0.14421,1,0.162,1,0.025,0
0.045702,7.9067e-14,0.001022,0.000163,0,0.00016044,4.5332e-16,6.3527e-22,0,3.6257,6.7944e-12,0.14559,0.14501,1,0.163,1,0.025,0
0.045957,3.9488e-14,0.001047,0.000164,0,0.00016136,-1.7468e-16,6.3527e-22,0,3.6457,-3.0671e-12,0.1464,0.14581,1,0.164,1,0.025,0
0.046211,5.0174e-14,0.0010725,0.000165,0,0.00016228,-1.7347e-16,9.5291e-22,0,3.6657,-3.0525e-12,0.14722,0.14661,1,0.165,1,0.025,0
0.046464,4.1533e-14,0.0010984,0.000166,0,0.00016319,-1.8787e-16,8.4703e-22,0,3.6856,-3.2827e-12,0.14803,0.14741,1,0.166,1,0.025,0
0.046716,2.1146e-13,0.0011248,0.000167,0,0.00016411,-5.0164e-16,6.3527e-22,0,3.7055,-8.2095e-12,0.14883,0.14821,1,0.167,1,0.025,0
0.046967,1.0162e-14,0.0011517,0.000168,0,0.00016502,-4.524e-16,7.4115e-22,0,3.7254,-7.4387e-12,0.14964,0.149,1,0.168,1,0.025,0
0.047218,-1.9175e-14,0.0011791,0.000169,0,0.00016592,-1.6518e-17,6.3527e-22,0,3.7452,-6.0164e-13,0.15045,0.14979,1,0.169,1,0.025,0
0.047467,-1.0451e-12,0.0012069,0.00017,0,0.00016683,1.3713e-15,6.3527e-22,0,3.7649,2.1192e-11,0.15125,0.15058,1,0.17,1,0.025,0
0.047715,7.8359e-13,0.0012352,0.000171,0,0.00016773,-3.1174e-15,6.3527e-22,0,3.7846,-4.9255e-11,0.15205,0.15137,1,0.171,1,0.025,0
0.047962,5.1198e-13,0.0012641,0.000172,0,0.00016862,1.0409e-15,6.3527e-22,0,3.8043,1.5968e-11,0.15285,0.15216,1,0.172,1,0.025,0
0.048208,1.2291e-13,0.0012934,0.000173,0,0.00016952,-1.3151e-16,8.4703e-22,0,3.8239,-2.4384e-12,0.15365,0.15294,1,0.173,1,0.025,0
0.048453,4.6712e-14,0.0013232,0.000174,0,0.00017041,-2.6049e-16,6.3527e-22,0,3.8435,-4.4675e-12,0.15445,0.15373,1,0.174,1,0.025,0
0.048697,5.4447e-14,0.0013536,0.000175,0,0.00017129,-2.5653e-16,7.4115e-22,0,3.863,-4.4109e-12,0.15524,0.15451,1,0.175,1,0.025,0
0.04894,5.5351e-14,0.0013845,0.000176,0,0.00017218,-2.6464e-16,7.4115e-22,0,3.8825,-4.5439e-12,0.15603,0.15529,1,0.176,1,0.025,0
0.049182,7.7105e-14,0.0014159,0.000177,0,0.00017305,-3.5869e-15,9.5291e-22,0,3.9019,-5.6661e-11,0.15682,0.15606,1,0.177,1,0.025,0
0.049422,4.3825e-14,0.0014478,0.000178,0,0.00017393,-3.666e-15,7.4115e-22,0,3.9212,-5.7877e-11,0.15761,0.15684,1,0.178,1,0.025,0
0.049662,6.7456e-14,0.0014803,0.000179,0,0.0001748,-4.3013e-16,7.4115e-22,0,3.9405,-7.1097e-12,0.1584,0.15761,1,0.179,1,0.025,0
0.049863,8.0514e-13,0.0015127,0.00018,0,0.00017556,1.3317e-14,7.4115e-22,0,3.9573,2.0844e-10,0.15908,0.15828,1,0.18,1,0.025,0
0.050062,-4.0924e-14,0.0015453,0.000181,0,0.00017631,-4.2866e-15,7.4115e-22,0,3.9738,-6.7733e-11,0.15975,0.15894,1,0.181,1,0.025,0
0.050295,6.9566e-14,0.0015782,0.000182,0,0.00017716,-2.9449e-16,8.4703e-22,0,3.9927,-5.1137e-12,0.16052,0.1597,1,0.182,1,0.025,0
0.050527,1.7469e-13,0.0016116,0.000183,0,0.000178,3.4874e-15,7.4115e-22,0,4.0114,5.4158e-11,0.16129,0.16045,1,0.183,1,0.025,0
0.050758,-1.6864e-14,0.0016456,0.000184,0,0.00017884,-1.1387e-15,8.4703e-22,0,4.03,-1.842e-11,0.16204,0.16119,1,0.184,1,0.025,0
0.050987,7.8971e-14,0.0016801,0.000185,0,0.00017967,-3.2265e-16,9.5291e-22,0,4.0484,-5.6315e-12,0.16279,0.16193,1,0.185,1,0.025,0
0.051214,8.0413e-14,0.0017151,0.000186,0,0.0001805,-3.879e-16,5.294e-22,0,4.0666,-6.6672e-12,0.16354,0.16266,1,0.186,1,0.025,0
0.05144,8.39e-14,0.0017507,0.000187,0,0.00018132,-3.3933e-16,7.4115e-22,0,4.0847,-5.918e-12,0.16427,0.16338,1,0.187,1,0.025,0
0.051663,1.4722e-14,0.0017869,0.000188,0,0.00018213,-5.5544e-16,7.4115e-22,0,4.1027,-9.3161e-12,0.16501,0.1641,1,0.188,1,0.025,0
0.051886,1.3006e-13,0.0018236,0.000189,0,0.00018294,-4.7482e-15,6.3527e-22,0,4.1204,-7.5057e-11,0.16573,0.16481,1,0.189,1,0.025,0
0.052106,8.768e-14,0.0018609,0.00019,0,0.00018374,-3.8473e-16,7.4115e-22,0,4.138,-6.6305e-12,0.16645,0.16552,1,0.19,1,0.025,0
0.052324,-2.1285e-12,0.0018987,0.000191,0,0.00018453,3.1549e-14,5.294e-22,0,4.1554,4.9409e-10,0.16716,0.16621,1,0.191,1,0.025,0
0.052541,1.0448e-13,0.0019371,0.000192,0,0.00018531,-2.6406e-16,5.294e-22,0,4.1727,-4.8561e-12,0.16786,0.1669,1,0.192,1,0.025,0
0.052756,8.6008e-13,0.0019756,0.000193,0,0.00018609,6.3643e-15,9.5291e-22,0,4.1897,9.9053e-11,0.16856,0.16758,1,0.193,1,0.025,0
0.052968,9.8258e-14,0.0020148,0.000194,0,0.00018686,-3.1038e-16,7.4115e-22,0,4.2066,-5.6343e-12,0.16925,0.16826,1,0.194,1,0.025,0
0.053179,9.8119e-14,0.0020545,0.000195,0,0.00018761,-3.4072e-16,7.4115e-22,0,4.2233,-6.1233e-12,0.16993,0.16893,1,0.195,1,0.025,0
0.053387,4.3829e-14,0.0020948,0.000196,0,0.00018837,6.9995e-16,7.4115e-22,0,4.2397,1.0177e-11,0.17061,0.16959,1,0.196,1,0.025,0
0.053593,5.1892e-14,0.0021356,0.000197,0,0.00018911,-5.4361e-16,8.4703e-22,0,4.256,-9.3338e-12,0.17127,0.17024,1,0.197,1,0.025,0
0.053797,1.0742e-13,0.0021771,0.000198,0,0.00018984,-3.4888e-16,6.3527e-22,0,4.272,-6.2941e-12,0.17193,0.17088,1,0.198,1,0.025,0
0.053999,1.0945e-13,0.0022192,0.000199,0,0.00019057,-4.5456e-16,8.4703e-22,0,4.2879,-7.9641e-12,0.17258,0.17151,1,0.199,1,0.025,0
0.054198,1.0875e-13,0.0022619,0.0002,0,0.00019129,-3.9901e-16,9.5291e-22,0,4.3035,-7.1067e-12,0.17322,0.17214,1,0.2,1,0.025,0
0.054396,1.1049e-13,0.0023052,0.000201,0,0.00019199,-3.8075e-16,7.4115e-22,0,4.3189,-6.8346e-12,0.17385,0.17276,1,0.201,1,0.025,0
0.05459,1.1298e-13,0.0023492,0.000202,0,0.00019269,-4.3429e-16,6.3527e-22,0,4.3341,-7.6878e-12,0.17447,0.17336,1,0.202,1,0.025,0
0.054783,1.2509e-13,0.0023938,0.000203,0,0.00019338,-3.4938e-16,4.2352e-22,0,4.3491,-6.371e-12,0.17509,0.17396,1,0.203,1,0.025,0
0.054973,4.0935e-14,0.002439,0.000204,0,0.00019406,-1.513e-15,9.5291e-22,0,4.3638,-2.4608e-11,0.17569,0.17455,1,0.204,1,0.025,0
0.05516,-9.0547e-14,0.0024848,0.000205,0,0.00019473,-6.167e-16,1.1647e-21,0,4.3783,-1.0565e-11,0.17629,0.17513,1,0.205,1,0.025,0
0.055345,6.0397e-13,0.0025314,0.000206,0,0.00019539,2.5398e-15,8.4703e-22,0,4.3925,3.8862e-11,0.17687,0.1757,1,0.206,1,0.025,0
0.055527,5.2905e-13,0.0025785,0.000207,0,0.00019604,-9.6428e-17,9.5291e-22,0,4.4065,-2.4772e-12,0.17745,0.17626,1,0.207,1,0.025,0
0.055706,1.5617e-12,0.0026264,0.000208,0,0.00019667,4.7061e-15,1.0588e-21,0,4.4203,7.2735e-11,0.17801,0.17681,1,0.208,1,0.025,0
0.055883,1.0314e-13,0.0026748,0.000209,0,0.0001973,-3.1664e-16,9.5291e-22,0,4.4338,-6.0002e-12,0.17857,0.17735,1,0.209,1,0.025,0
0.056057,1.3628e-13,0.002724,0.00021,0,0.00019792,-6.0316e-16,8.4703e-22,0,4.447,-1.0505e-11,0.17912,0.17788,1,0.21,1,0.025,0
0.056228,1.3814e-13,0.0027739,0.000211,0,0.00019852,-6.3118e-16,1.0588e-21,0,4.46,-1.0959e-11,0.17965,0.1784,1,0.211,1,0.025,0
0.056397,1.4068e-13,0.0028244,0.000212,0,0.00019912,-6.4844e-16,1.0588e-21,0,4.4727,-1.1244e-11,0.18018,0.17891,1,0.212,1,0.025,0
0.056562,-1.5165e-12,0.0028757,0.000213,0,0.0001997,5.0169e-15,1.0588e-21,0,4.4851,7.7509e-11,0.18069,0.17941,1,0.213,1,0.025,0
0.056725,6.7824e-13,0.0029276,0.000214,0,0.00020027,1.6045e-15,1.1647e-21,0,4.4973,2.4009e-11,0.18119,0.1799,1,0.214,1,0.025,0
0.056884,1.3958e-13,0.0029803,0.000215,0,0.00020083,-6.9186e-16,1.0588e-21,0,4.5091,-1.1983e-11,0.18169,0.18037,1,0.215,1,0.025,0
0.057041,1.6947e-12,0.0030337,0.000216,0,0.00020138,1.558e-14,9.5291e-22,0,4.5207,2.4271e-10,0.18217,0.18083,1,0.216,1,0.025,0
0.057144,1.9116e-13,0.0030867,0.000217,0,0.00020181,-1.32e-15,9.5291e-22,0,4.5298,-2.2058e-11,0.18255,0.1812,1,0.217,1,0.025,0
0.057243,1.5774e-13,0.00314,0.000218,0,0.00020224,-1.0599e-15,1.0588e-21,0,4.5385,-1.7997e-11,0.18291,0.18155,1,0.218,1,0.025,0
0.057388,2.5004e-13,0.0031944,0.000219,0,0.00020274,-6.2042e-16,1.0588e-21,0,4.549,-1.1131e-11,0.18335,0.18197,1,0.219,1,0.025,0
0.057528,1.6342e-13,0.0032495,0.00022,0,0.00020323,-9.3952e-16,1.0588e-21,0,4.5593,-1.6145e-11,0.18378,0.18238,1,0.22,1,0.025,0
0.057664,1.6561e-13,0.0033053,0.000221,0,0.00020371,-9.7892e-16,1.1647e-21,0,4.5692,-1.6778e-11,0.18419,0.18278,1,0.221,1,0.025,0
0.057797,1.6837e-13,0.0033619,0.000222,0,0.00020417,-1.0249e-15,9.5291e-22,0,4.5788,-1.7513e-11,0.18459,0.18316,1,0.222,1,0.025,0
0.057925,3.0586e-13,0.0034192,0.000223,0,0.00020461,-1.0802e-15,1.1647e-21,0,4.588,-1.8398e-11,0.18498,0.18353,1,0.223,1,0.025,0
0.058049,1.9627e-13,0.0034772,0.000224,0,0.00020504,-3.2275e-16,1.5882e-21,0,4.5969,-6.5489e-12,0.18535,0.18389,1,0.224,1,0.025,0
0.05817,1.7554e-12,0.0035361,0.000225,0,0.00020546,3.3257e-15,1.0588e-21,0,4.6054,5.0487e-11,0.18571,0.18423,1,0.225,1,0.025,0
0.058286,1.8606e-13,0.0035957,0.000226,0,0.00020586,-1.3005e-15,7.4115e-22,0,4.6135,-2.1968e-11,0.18606,0.18455,1,0.226,1,0.025,0
0.058397,-1.8261e-12,0.003656,0.000227,0,0.00020625,-1.5044e-14,1.0588e-21,0,4.6213,-2.3709e-10,0.18639,0.18487,1,0.227,1,0.025,0
0.058505,2.0267e-13,0.0037172,0.000228,0,0.00020662,-1.1114e-15,1.1647e-21,0,4.6287,-1.8982e-11,0.1867,0.18516,1,0.228,1,0.025,0
0.058608,1.5695e-13,0.0037791,0.000229,0,0.00020697,-1.5911e-15,1.0588e-21,0,4.6358,-2.6507e-11,0.187,0.18544,1,0.229,1,0.025,0
0.058707,1.7709e-13,0.0038419,0.00023,0,0.00020731,-1.7141e-15,9.5291e-22,0,4.6424,-2.845e-11,0.18729,0.18571,1,0.23,1,0.025,0
0.058801,1.7791e-13,0.0039054,0.000231,0,0.00020763,-1.7899e-15,1.0588e-21,0,4.6487,-2.9652e-11,0.18756,0.18596,1,0.231,1,0.025,0
0.058891,1.8179e-13,0.0039698,0.000232,0,0.00020793,-1.8306e-15,1.1647e-21,0,4.6546,-3.0306e-11,0.18781,0.1862,1,0.232,1,0.025,0
0.058976,2.4685e-13,0.0040351,0.000233,0,0.00020822,-2.9254e-15,8.4703e-22,0,4.6601,-4.7451e-11,0.18805,0.18642,1,0.233,1,0.025,0
0.059057,-4.0609e-13,0.0041011,0.000234,0,0.00020849,-1.514e-15,1.1647e-21,0,4.6652,-2.5383e-11,0.18828,0.18662,1,0.234,1,0.025,0
0.059132,5.3404e-13,0.004168,0.000235,0,0.00020874,-2.2582e-15,1.0588e-21,0,4.6698,-3.7062e-11,0.18848,0.18681,1,0.235,1,0.025,0
0.059204,1.8613e-13,0.0042358,0.000236,0,0.00020898,-2.1084e-15,8.4703e-22,0,4.6741,-3.4735e-11,0.18868,0.18698,1,0.236,1,0.025,0
0.05927,1.3064e-12,0.0043044,0.000237,0,0.0002092,-2.4639e-15,1.1647e-21,0,4.678,-4.0322e-11,0.18885,0.18714,1,0.237,1,0.025,0
0.059332,2.0526e-13,0.004374,0.000238,0,0.0002094,-2.2395e-15,1.0588e-21,0,4.6814,-3.6829e-11,0.18901,0.18728,1,0.238,1,0.025,0
0.059388,1.2094e-12,0.0044444,0.000239,0,0.00020958,-3.9695e-14,8.4703e-22,0,4.6844,-6.2252e-10,0.18915,0.1874,1,0.239,1,0.025,0
0.05944,2.4874e-13,0.0045158,0.00024,0,0.00020974,-2.2572e-15,1.2705e-21,0,4.687,-3.6878e-11,0.18928,0.1875,1,0.24,1,0.025,0
0.059487,3.6908e-13,0.0045881,0.000241,0,0.00020989,5.0512e-15,1.0588e-21,0,4.6892,7.7355e-11,0.18938,0.18759,1,0.241,1,0.025,0
0.059529,2.1854e-13,0.0046613,0.000242,0,0.00021001,-2.5542e-15,1.2705e-21,0,4.6909,-4.1621e-11,0.18947,0.18766,1,0.242,1,0.025,0
0.059566,2.7363e-13,0.0047354,0.000243,0,0.00021012,-1.9334e-15,8.4703e-22,0,4.6922,-3.1929e-11,0.18955,0.18771,1,0.243,1,0.025,0
0.059598,2.4794e-13,0.0048106,0.000244,0,0.00021021,-2.3111e-15,1.2705e-21,0,4.693,-3.7856e-11,0.1896,0.18775,1,0.244,1,0.025,0
0.059625,2.1962e-13,0.0048867,0.000245,0,0.00021028,-2.752e-15,1.0588e-21,0,4.6934,-4.4767e-11,0.18964,0.18776,1,0.245,1,0.025,0
0.059646,2.2308e-13,0.004963,0.000246,0,0.00021033,-2.8258e-15,1.2705e-21,0,4.6934,-4.5939e-11,0.18966,0.18776,1,0.246,1,0.025,0
0.059663,2.2232e-13,0.0050403,0.000247,0,0.00021036,-2.8922e-15,1.4823e-21,0,4.6928,-4.6994e-11,0.18966,0.18774,1,0.247,1,0.025,0
0.059673,2.2354e-13,0.0051186,0.000248,0,0.00021037,-2.9667e-15,1.2705e-21,0,4.6918,-4.8176e-11,0.18964,0.1877,1,0.248,1,0.025,0
0.059679,2.2406e-13,0.0051978,0.000249,0,0.00021035,-3.043e-15,1.2705e-21,0,4.6903,-4.9386e-11,0.18961,0.18764,1,0.249,1,0.025,0
0.059679,2.457e-13,0.0052781,0.00025,0,0.00021032,-1.0197e-15,1.4823e-21,0,4.6882,-1.7785e-11,0.18955,0.18756,1,0.25,1,0.025,0
0.059673,2.298e-13,0.0053586,0.000251,0,0.00021026,-3.1413e-15,1.0588e-21,0,4.6857,-5.0964e-11,0.18947,0.18746,1,0.251,1,0.025,0
0.059662,2.2841e-13,0.00544,0.000252,0,0.00021018,-3.2437e-15,1.2705e-21,0,4.6827,-5.2581e-11,0.18937,0.18734,1,0.252,1,0.025,0
0.059645,2.2441e-13,0.0055225,0.000253,0,0.00021008,-3.3291e-15,1.2705e-21,0,4.6791,-5.3933e-11,0.18925,0.1872,1,0.253,1,0.025,0
0.059623,2.2944e-13,0.005606,0.000254,0,0.00020996,-3.4009e-15,1.6941e-21,0,4.675,-5.5073e-11,0.18911,0.18703,1,0.254,1,0.025,0
0.059595,-2.0077e-13,0.0056905,0.000255,0,0.00020981,-3.1579e-15,1.4823e-21,0,4.6703,-5.128e-11,0.18895,0.18685,1,0.255,1,0.025,0
0.059561,2.3074e-13,0.0057762,0.000256,0,0.00020964,-3.5577e-15,1.4823e-21,0,4.6651,-5.7543e-11,0.18877,0.18664,1,0.256,1,0.025,0
0.059521,-6.8892e-13,0.0058629,0.000257,0,0.00020944,-2.4726e-14,1.4823e-21,0,4.6594,-3.8817e-10,0.18857,0.18641,1,0.257,1,0.025,0
0.059475,2.3255e-13,0.0059507,0.000258,0,0.00020923,-3.835e-15,1.2705e-21,0,4.6531,-6.1854e-11,0.18834,0.18616,1,0.258,1,0.025,0
0.059424,5.284e-13,0.0060396,0.000259,0,0.00020898,-5.663e-15,1.9058e-21,0,4.6463,-9.0422e-11,0.18809,0.18589,1,0.259,1,0.025,0
0.059367,2.237e-13,0.0061297,0.00026,0,0.00020872,-4.0991e-15,1.6941e-21,0,4.6389,-6.6013e-11,0.18782,0.1856,1,0.26,1,0.025,0
0.059303,8.1295e-13,0.0062209,0.000261,0,0.00020843,-6.9147e-15,1.4823e-21,0,4.631,-1.1e-10,0.18753,0.18528,1,0.261,1,0.025,0
0.059234,2.3191e-13,0.0063132,0.000262,0,0.00020811,-4.283e-15,1.4823e-21,0,4.6225,-6.8922e-11,0.18722,0.18494,1,0.262,1,0.025,0
0.059158,2.2881e-13,0.0064067,0.000263,0,0.00020777,-4.3701e-15,1.6941e-21,0,4.6134,-7.0298e-11,0.18689,0.18458,1,0.263,1,0.025,0
0.059077,2.2047e-13,0.0065014,0.000264,0,0.00020741,-4.4899e-15,1.4823e-21,0,4.6038,-7.2184e-11,0.18653,0.1842,1,0.264,1,0.025,0
0.058989,2.4462e-13,0.0065973,0.000265,0,0.00020702,-4.6728e-15,1.9058e-21,0,4.5936,-7.5055e-11,0.18615,0.18379,1,0.265,1,0.025,0
0.058895,-2.9224e-12,0.0066945,0.000266,0,0.00020661,3.2112e-15,1.6941e-21,0,4.5828,4.8027e-11,0.18574,0.18336,1,0.266,1,0.025,0
0.058795,3.6662e-13,0.0067929,0.000267,0,0.00020617,-6.9252e-15,1.6941e-21,0,4.5714,-1.1017e-10,0.18532,0.18291,1,0.267,1,0.025,0
0.058689,-9.7053e-13,0.0068925,0.000268,0,0.00020571,3.3976e-14,1.4823e-21,0,4.5595,5.2794e-10,0.18487,0.18243,1,0.268,1,0.025,0
0.058577,-4.0893e-13,0.0069934,0.000269,0,0.00020522,-7.3778e-15,1.9058e-21,0,4.5469,-1.1737e-10,0.1844,0.18193,1,0.269,1,0.025,0
0.058458,2.3165e-13,0.0070956,0.00027,0,0.0002047,-4.2638e-15,1.9058e-21,0,4.5338,-6.88e-11,0.1839,0.1814,1,0.27,1,0.025,0
0.05823,1.9379e-13,0.0071956,0.000271,0,0.00020388,-4.4224e-15,1.9058e-21,0,4.5136,-7.1292e-11,0.18312,0.1806,1,0.271,1,0.025,0
0.058098,2.3287e-13,0.0072984,0.000272,0,0.00020331,-4.3794e-15,1.6941e-21,0,4.4993,-7.0638e-11,0.18258,0.18003,1,0.272,1,0.025,0
0.057959,8.1481e-13,0.0074027,0.000273,0,0.00020272,-6.4068e-15,1.6941e-21,0,4.4844,-1.0227e-10,0.18201,0.17943,1,0.273,1,0.025,0
0.057813,2.3871e-13,0.0075083,0.000274,0,0.00020209,-4.5623e-15,1.6941e-21,0,4.4688,-7.3523e-11,0.18142,0.17881,1,0.274,1,0.025,0
0.05766,2.3627e-13,0.0076153,0.000275,0,0.00020144,-4.6549e-15,1.4823e-21,0,4.4526,-7.4985e-11,0.1808,0.17816,1,0.275,1,0.025,0
0.0575,1.0301e-12,0.0077238,0.000276,0,0.00020077,-3.1353e-15,1.9058e-21,0,4.4357,-5.1322e-11,0.18016,0.17749,1,0.276,1,0.025,0
0.057334,2.4466e-13,0.0078336,0.000277,0,0.00020006,-4.8283e-15,8.4703e-22,0,4.4183,-7.7739e-11,0.1795,0.17679,1,0.277,1,0.025,0
0.057161,2.3855e-13,0.0079448,0.000278,0,0.00019933,-4.9294e-15,1.2705e-21,0,4.4002,-7.9333e-11,0.17881,0.17607,1,0.278,1,0.025,0
0.056981,2.378e-13,0.0080575,0.000279,0,0.00019857,-5.0221e-15,1.6941e-21,0,4.3815,-8.0796e-11,0.17809,0.17533,1,0.279,1,0.025,0
0.056794,2.2693e-13,0.0081717,0.00028,0,0.00019779,-5.4284e-15,2.1176e-21,0,4.3622,-8.7144e-11,0.17735,0.17455,1,0.28,1,0.025,0
0.0566,2.3974e-13,0.0082874,0.000281,0,0.00019698,-5.2162e-15,2.3293e-21,0,4.3422,-8.3854e-11,0.17659,0.17376,1,0.281,1,0.025,0
0.0564,2.7646e-13,0.0084046,0.000282,0,0.00019614,-5.0224e-15,2.5411e-21,0,4.3217,-8.0859e-11,0.1758,0.17294,1,0.282,1,0.025,0
0.056193,2.3779e-13,0.0085233,0.000283,0,0.00019527,-5.3827e-15,1.6941e-21,0,4.3005,-8.649e-11,0.17499,0.17209,1,0.283,1,0.025,0
0.055979,2.3732e-13,0.0086437,0.000284,0,0.00019437,-5.4699e-15,2.3293e-21,0,4.2787,-8.7866e-11,0.17415,0.17122,1,0.284,1,0.025,0
0.055758,2.3145e-13,0.0087657,0.000285,0,0.00019345,-5.608e-15,2.9646e-21,0,4.2562,-9.0034e-11,0.17329,0.17032,1,0.285,1,0.025,0
0.055531,2.4802e-13,0.0088893,0.000286,0,0.0001925,-5.4817e-15,2.3293e-21,0,4.2332,-8.8085e-11,0.1724,0.1694,1,0.286,1,0.025,0
0.055297,1.0612e-13,0.0090146,0.000287,0,0.00019153,-4.393e-15,2.5411e-21,0,4.2096,-7.1163e-11,0.17149,0.16846,1,0.287,1,0.025,0
0.055057,2.3659e-13,0.0091416,0.000288,0,0.00019053,-5.8282e-15,2.1176e-21,0,4.1853,-9.3527e-11,0.17056,0.16749,1,0.288,1,0.025,0
0.054809,-3.7504e-12,0.0092703,0.000289,0,0.0001895,3.2227e-14,1.6941e-21,0,4.1604,4.9873e-10,0.1696,0.1665,1,0.289,1,0.025,0
0.054556,1.8281e-13,0.0094008,0.00029,0,0.00018844,-5.6944e-15,1.4823e-21,0,4.1349,-9.1608e-11,0.16862,0.16548,1,0.29,1,0.025,0
0.054296,1.9331e-13,0.0095331,0.000291,0,0.00018736,-5.8089e-15,1.6941e-21,0,4.1089,-9.3408e-11,0.16762,0.16444,1,0.291,1,0.025,0
0.054029,1.9318e-13,0.0096672,0.000292,0,0.00018625,-5.898e-15,1.6941e-21,0,4.0822,-9.4811e-11,0.16659,0.16337,1,0.292,1,0.025,0
0.053756,1.9331e-13,0.0098032,0.000293,0,0.00018512,-5.9948e-15,1.6941e-21,0,4.0549,-9.6335e-11,0.16554,0.16229,1,0.293,1,0.025,0
0.053476,1.9341e-13,0.009941,0.000294,0,0.00018396,-6.0813e-15,1.4823e-21,0,4.0271,-9.7697e-11,0.16447,0.16117,1,0.294,1,0.025,0
0.053191,1.9175e-13,0.010081,0.000295,0,0.00018277,-6.1652e-15,2.5411e-21,0,3.9987,-9.9019e-11,0.16337,0.16004,1,0.295,1,0.025,0
0.052899,1.926e-13,0.010223,0.000296,0,0.00018156,-6.2662e-15,2.1176e-21,0,3.9697,-1.0061e-10,0.16225,0.15888,1,0.296,1,0.025,0
0.0526,2.6221e-13,0.010366,0.000297,0,0.00018033,-6.554e-15,1.6941e-21,0,3.9401,-1.051e-10,0.16111,0.1577,1,0.297,1,0.025,0
0.052296,1.9428e-13,0.010512,0.000298,0,0.00017907,-6.4872e-15,2.9646e-21,0,3.9099,-1.0407e-10,0.15994,0.15649,1,0.298,1,0.025,0
0.051985,6.5752e-13,0.01066,0.000299,0,0.00017778,7.6684e-16,2.5411e-21,0,3.8792,9.1526e-12,0.15876,0.15527,1,0.299,1,0.025,0
0.051669,1.8118e-13,0.01081,0.0003,0,0.00017647,-5.6039e-15,2.5411e-21,0,3.8479,-8.9836e-11,0.15755,0.15402,1,0.3,1,0.025,0
0.051346,-3.9284e-13,0.010963,0.000301,0,0.00017513,2.1053e-14,2.1176e-21,0,3.8161,3.2436e-10,0.15632,0.15275,1,0.301,1,0.025,0
0.051018,2.2325e-13,0.011117,0.000302,0,0.00017377,-6.0541e-15,2.9646e-21,0,3.7838,-9.6918e-11,0.15507,0.15146,1,0.302,1,0.025,0
0.050684,4.3852e-13,0.011274,0.000303,0,0.00017239,-3.9482e-15,3.3881e-21,0,3.7509,-6.4247e-11,0.1538,0.15014,1,0.303,1,0.025,0
0.050345,1.5791e-13,0.011434,0.000304,0,0.00017099,-6.1966e-15,2.5411e-21,0,3.7175,-9.9199e-11,0.15251,0.14881,1,0.304,1,0.025,0
0.05,1.4402e-13,0.011595,0.000305,0,0.00016956,-6.2783e-15,2.1176e-21,0,3.6836,-1.0049e-10,0.1512,0.14746,1,0.305,1,0.025,0
0.049649,1.4893e-13,0.011759,0.000306,0,0.00016811,-6.4048e-15,2.5411e-21,0,3.6492,-1.0247e-10,0.14988,0.14608,1,0.306,1,0.025,0
0.049293,1.4886e-13,0.011926,0.000307,0,0.00016663,-6.5084e-15,3.8116e-21,0,3.6143,-1.0409e-10,0.14853,0.14469,1,0.307,1,0.025,0
0.048931,-8.6029e-13,0.012095,0.000308,0,0.00016514,3.4344e-15,3.3881e-21,0,3.5788,5.0186e-11,0.14716,0.14327,1,0.308,1,0.025,0
0.048564,1.3025e-13,0.012267,0.000309,0,0.00016362,-6.6851e-15,2.5411e-21,0,3.543,-1.0691e-10,0.14577,0.14184,1,0.309,1,0.025,0
0.048192,-9.9218e-14,0.012441,0.00031,0,0.00016208,-1.0259e-14,2.1176e-21,0,3.5066,-1.6237e-10,0.14437,0.14039,1,0.31,1,0.025,0
0.047816,1.6428e-13,0.012619,0.000311,0,0.00016052,-7.1133e-15,2.9646e-21,0,3.4698,-1.1356e-10,0.14295,0.13892,1,0.311,1,0.025,0
0.047434,1.4572e-13,0.012797,0.000312,0,0.00015895,-6.8642e-15,2.9646e-21,0,3.4325,-1.0971e-10,0.14151,0.13743,1,0.312,1,0.025,0
0.047047,1.2613e-13,0.012978,0.000313,0,0.00015735,-7.0379e-15,2.9646e-21,0,3.3948,-1.1242e-10,0.14005,0.13592,1,0.313,1,0.025,0
0.046656,-1.3636e-12,0.013163,0.000314,0,0.00015573,2.4156e-14,3.3881e-21,0,3.3567,3.71e-10,0.13858,0.1344,1,0.314,1,0.025,0
0.04626,9.53e-14,0.013348,0.000315,0,0.0001541,-7.2136e-15,2.9646e-21,0,3.3182,-1.1545e-10,0.13709,0.13286,1,0.315,1,0.025,0
0.04586,7.9794e-14,0.013537,0.000316,0,0.00015244,-7.3065e-15,3.3881e-21,0,3.2793,-1.169e-10,0.13559,0.13131,1,0.316,1,0.025,0
0.045456,9.2631e-14,0.013728,0.000317,0,0.00015077,-7.4193e-15,2.9646e-21,0,3.2401,-1.1866e-10,0.13407,0.12974,1,0.317,1,0.025,0
0.045048,8.2068e-14,0.013923,0.000318,0,0.00014909,-7.499e-15,3.3881e-21,0,3.2004,-1.199e-10,0.13254,0.12816,1,0.318,1,0.025,0
0.044635,8.1642e-14,0.01412,0.000319,0,0.00014738,-7.5942e-15,3.3881e-21,0,3.1604,-1.2139e-10,0.131,0.12656,1,0.319,1,0.025,0
0.044219,8.0132e-14,0.014317,0.00032,0,0.00014567,-7.7069e-15,2.9646e-21,0,3.1201,-1.2315e-10,0.12944,0.12495,1,0.32,1,0.025,0
0.0438,-4.7878e-13,0.014519,0.000321,0,0.00014393,2.5992e-14,2.5411e-21,0,3.0795,3.9843e-10,0.12788,0.12333,1,0.321,1,0.025,0
0.043377,6.9448e-14,0.014723,0.000322,0,0.00014218,-1.0818e-14,3.8116e-21,0,3.0385,-1.7156e-10,0.1263,0.12169,1,0.322,1,0.025,0
0.042951,3.8286e-14,0.014929,0.000323,0,0.00014042,-8.017e-15,3.3881e-21,0,2.9972,-1.2821e-10,0.1247,0.12004,1,0.323,1,0.025,0
0.042522,1.0431e-13,0.015139,0.000324,0,0.00013865,-7.8909e-15,3.8116e-21,0,2.9557,-1.2626e-10,0.1231,0.11839,1,0.324,1,0.025,0
0.04209,8.8449e-13,0.01535,0.000325,0,0.00013686,-1.915e-15,3.3881e-21,0,2.9139,-3.384e-11,0.12149,0.11672,1,0.325,1,0.025,0
0.041655,-2.1327e-13,0.015564,0.000326,0,0.00013507,-9.7738e-15,2.5411e-21,0,2.8719,-1.5543e-10,0.11988,0.11504,1,0.326,1,0.025,0
0.041219,3.3419e-14,0.015783,0.000327,0,0.00013326,-8.3324e-15,2.9646e-21,0,2.8297,-1.3314e-10,0.11825,0.11336,1,0.327,1,0.025,0
0.040779,2.0703e-13,0.016005,0.000328,0,0.00013144,-7.5669e-15,4.6587e-21,0,2.7874,-1.2132e-10,0.11662,0.11166,1,0.328,1,0.025,0
0.040338,6.305e-14,0.016231,0.000329,0,0.00012962,-8.5903e-15,2.5411e-21,0,2.7448,-1.3715e-10,0.11498,0.10996,1,0.329,1,0.025,0
0.039895,2.946e-14,0.016461,0.00033,0,0.00012779,-8.7082e-15,5.0822e-21,0,2.7021,-1.3897e-10,0.11333,0.10826,1,0.33,1,0.025,0
0.039449,1.234e-14,0.016695,0.000331,0,0.00012595,-5.3178e-15,3.8116e-21,0,2.6592,-8.6595e-11,0.11168,0.10655,1,0.331,1,0.025,0
0.039003,-2.6495e-12,0.016931,0.000332,0,0.0001241,7.4225e-15,4.2352e-21,0,2.6162,1.1012e-10,0.11003,0.10483,1,0.332,1,0.025,0
0.038554,-4.5232e-14,0.017171,0.000333,0,0.00012225,-9.0424e-15,4.6587e-21,0,2.5731,-1.442e-10,0.10838,0.10311,1,0.333,1,0.025,0
0.038104,-5.1339e-14,0.017416,0.000334,0,0.00012039,-9.1847e-15,4.2352e-21,0,2.5299,-1.4639e-10,0.10672,0.10138,1,0.334,1,0.025,0
0.037653,-5.7199e-14,0.017663,0.000335,0,0.00011854,-9.3493e-15,4.2352e-21,0,2.4867,-1.4893e-10,0.10505,0.099657,1,0.335,1,0.025,0
0.037201,-6.6096e-14,0.017914,0.000336,0,0.00011667,-9.5201e-15,6.3527e-21,0,2.4434,-1.5157e-10,0.10339,0.097929,1,0.336,1,0.025,0
0.036748,-7.9711e-14,0.018169,0.000337,0,0.00011481,-9.8033e-15,2.9646e-21,0,2.4001,-1.5593e-10,0.10173,0.096199,1,0.337,1,0.025,0
0.036294,-8.2361e-14,0.018427,0.000338,0,0.00011294,-9.8851e-15,5.0822e-21,0,2.3567,-1.5719e-10,0.10007,0.094468,1,0.338,1,0.025,0
0.03584,-2.1856e-13,0.018687,0.000339,0,0.00011107,-1.0095e-14,2.9646e-21,0,2.3134,-1.6041e-10,0.098407,0.092738,1,0.339,1,0.025,0
0.035385,-5.0151e-13,0.018951,0.00034,0,0.0001092,-1.0691e-14,3.8116e-21,0,2.2701,-1.6959e-10,0.096747,0.091009,1,0.34,1,0.025,0
0.03493,-1.1148e-13,0.01922,0.000341,0,0.00010734,-1.0509e-14,2.9646e-21,0,2.2268,-1.6676e-10,0.095091,0.089282,1,0.341,1,0.025,0
0.034475,-1.3819e-13,0.019492,0.000342,0,0.00010547,-1.0643e-14,5.0822e-21,0,2.1836,-1.6882e-10,0.093438,0.087558,1,0.342,1,0.025,0
0.03402,-1.4703e-13,0.019768,0.000343,0,0.00010361,-1.0821e-14,3.8116e-21,0,2.1405,-1.7154e-10,0.091789,0.085838,1,0.343,1,0.025,0
0.033565,-1.5449e-13,0.020048,0.000344,0,0.00010175,-1.0947e-14,4.2352e-21,0,2.0976,-1.7347e-10,0.090146,0.084121,1,0.344,1,0.025,0
0.033111,-1.9362e-13,0.020332,0.000345,0,9.9897e-05,-1.1174e-14,2.5411e-21,0,2.0547,-1.7695e-10,0.088508,0.08241,1,0.345,1,0.025,0
0.032657,-1.803e-13,0.020623,0.000346,0,9.8049e-05,-1.1293e-14,5.0822e-21,0,2.012,-1.7877e-10,0.086877,0.080705,1,0.346,1,0.025,0
0.032205,-6.1454e-13,0.020915,0.000347,0,9.6207e-05,1.6476e-14,5.9292e-21,0,1.9694,2.4833e-10,0.085254,0.079007,1,0.347,1,0.025,0
0.031753,-2.4871e-13,0.021214,0.000348,0,9.4372e-05,-1.1065e-14,5.0822e-21,0,1.9271,-1.7533e-10,0.083639,0.077316,1,0.348,1,0.025,0
0.031302,-2.4977e-13,0.021518,0.000349,0,9.2545e-05,-1.2634e-14,5.9292e-21,0,1.8849,-1.9942e-10,0.082034,0.075634,1,0.349,1,0.025,0
0.030853,-3.2526e-13,0.021828,0.00035,0,9.0727e-05,-1.0521e-14,5.0822e-21,0,1.843,-1.6693e-10,0.080438,0.073961,1,0.35,1,0.025,0
0.030405,-3.1164e-13,0.022144,0.000351,0,8.892e-05,-1.1702e-14,5.9292e-21,0,1.8014,-1.8505e-10,0.078854,0.072298,1,0.351,1,0.025,0
0.029959,-3.54e-13,0.022465,0.000352,0,8.7123e-05,-1.1938e-14,4.2352e-21,0,1.76,-1.8864e-10,0.077281,0.070646,1,0.352,1,0.025,0
0.029514,-3.2959e-13,0.022793,0.000353,0,8.5338e-05,-1.2083e-14,4.2352e-21,0,1.7189,-1.9083e-10,0.07572,0.069006,1,0.353,1,0.025,0
0.029072,-3.5609e-13,0.023128,0.000354,0,8.3566e-05,-1.2258e-14,4.2352e-21,0,1.6781,-1.9349e-10,0.074173,0.067379,1,0.354,1,0.025,0
0.028632,-4.0143e-13,0.023466,0.000355,0,8.1806e-05,-1.217e-14,5.9292e-21,0,1.6377,-1.921e-10,0.072639,0.065764,1,0.355,1,0.025,0
0.028194,-4.013e-13,0.02381,0.000356,0,8.0061e-05,-1.269e-14,5.9292e-21,0,1.5975,-2.0004e-10,0.07112,0.064163,1,0.356,1,0.025,0
0.027758,-5.0613e-13,0.024161,0.000357,0,7.833e-05,-1.1582e-14,5.9292e-21,0,1.5578,-1.8302e-10,0.069615,0.062576,1,0.357,1,0.025,0
0.027325,-6.679e-14,0.024516,0.000358,0,7.6615e-05,-1.3319e-14,5.0822e-21,0,1.5184,-2.0961e-10,0.068127,0.061005,1,0.358,1,0.025,0
0.026895,-4.4326e-13,0.024878,0.000359,0,7.4916e-05,-1.3412e-14,6.7763e-21,0,1.4794,-2.1099e-10,0.066655,0.05945,1,0.359,1,0.025,0
0.026467,-4.767e-13,0.025243,0.00036,0,7.3234e-05,-1.0713e-14,4.2352e-21,0,1.4409,-1.6962e-10,0.065201,0.057911,1,0.36,1,0.025,0
0.026043,4.5579e-13,0.025614,0.000361,0,7.157e-05,-1.0594e-15,5.0822e-21,0,1.4027,-2.1839e-11,0.063764,0.056389,1,0.361,1,0.025,0
0.025622,-5.4774e-13,0.025993,0.000362,0,6.9925e-05,-1.4088e-14,7.6233e-21,0,1.365,-2.2124e-10,0.062346,0.054886,1,0.362,1,0.025,0
0.025204,-6.0169e-13,0.026378,0.000363,0,6.8299e-05,-1.4307e-14,5.9292e-21,0,1.3278,-2.2453e-10,0.060947,0.053401,1,0.363,1,0.025,0
0.02479,-6.3329e-13,0.026768,0.000364,0,6.6693e-05,-1.4636e-14,7.6233e-21,0,1.2911,-2.295e-10,0.059568,0.051935,1,0.364,1,0.025,0
0.024379,-6.6577e-13,0.027164,0.000365,0,6.5107e-05,-1.4984e-14,6.7763e-21,0,1.2548,-2.3476e-10,0.058209,0.050489,1,0.365,1,0.025,0
0.023972,-6.9975e-13,0.027567,0.000366,0,6.3542e-05,-1.5336e-14,5.9292e-21,0,1.2191,-2.4005e-10,0.05687,0.049063,1,0.366,1,0.025,0
0.023569,-7.3339e-13,0.027978,0.000367,0,6.1999e-05,-1.5703e-14,6.7763e-21,0,1.1838,-2.4558e-10,0.055553,0.047657,1,0.367,1,0.025,0
0.02317,-7.6708e-13,0.028396,0.000368,0,6.0479e-05,-1.6076e-14,6.7763e-21,0,1.1492,-2.5118e-10,0.054258,0.046274,1,0.368,1,0.025,0
0.022775,-2.6616e-13,0.028821,0.000369,0,5.8982e-05,-1.9986e-14,5.9292e-21,0,1.115,-3.1073e-10,0.052985,0.044911,1,0.369,1,0.025,0
0.022384,-8.9206e-13,0.029254,0.00037,0,5.7508e-05,-1.7349e-14,6.7763e-21,0,1.0814,-2.7039e-10,0.051735,0.043571,1,0.37,1,0.025,0
0.021998,-2.0958e-13,0.029694,0.000371,0,5.6057e-05,-1.638e-14,6.7763e-21,0,1.0484,-2.5552e-10,0.050507,0.042254,1,0.371,1,0.025,0
0.021616,-9.2354e-13,0.030142,0.000372,0,5.4631e-05,-1.7929e-14,5.0822e-21,0,1.0159,-2.7905e-10,0.049303,0.040959,1,0.372,1,0.025,0
0.021238,-8.45e-13,0.030598,0.000373,0,5.3231e-05,-1.9401e-14,4.2352e-21,0,0.98403,-3.0134e-10,0.048123,0.039688,1,0.373,1,0.025,0
0.020866,-1.1792e-12,0.031061,0.000374,0,5.1855e-05,-2.0981e-14,5.9292e-21,0,0.95275,-3.2525e-10,0.046967,0.038441,1,0.374,1,0.025,0
0.020498,-1.3445e-12,0.031532,0.000375,0,5.0504e-05,-1.9589e-14,5.9292e-21,0,0.92206,-3.0393e-10,0.045835,0.037217,1,0.375,1,0.025,0
0.020135,-1.1055e-12,0.032011,0.000376,0,4.9179e-05,-1.9855e-14,5.9292e-21,0,0.89198,-3.0782e-10,0.044728,0.036018,1,0.376,1,0.025,0
0.019777,-1.0611e-12,0.032497,0.000377,0,4.7881e-05,-2.0706e-14,5.0822e-21,0,0.86251,-3.2061e-10,0.043645,0.034844,1,0.377,1,0.025,0
0.019425,-1.2806e-12,0.032992,0.000378,0,4.6608e-05,-2.1484e-14,5.9292e-21,0,0.83366,-3.3226e-10,0.042587,0.033693,1,0.378,1,0.025,0
0.019077,-1.2564e-12,0.033494,0.000379,0,4.5362e-05,-2.1357e-14,5.9292e-21,0,0.80541,-3.3017e-10,0.041554,0.032568,1,0.379,1,0.025,0
0.018735,-1.311e-12,0.034004,0.00038,0,4.4142e-05,-2.1869e-14,7.6233e-21,0,0.77779,-3.3776e-10,0.040546,0.031467,1,0.38,1,0.025,0
0.018397,-1.5502e-12,0.034521,0.000381,0,4.2949e-05,-2.2326e-14,5.0822e-21,0,0.75079,-3.4452e-10,0.039563,0.030391,1,0.381,1,0.025,0
0.018066,-1.4264e-12,0.035047,0.000382,0,4.1782e-05,-2.2938e-14,6.7763e-21,0,0.72441,-3.5361e-10,0.038605,0.029339,1,0.382,1,0.025,0
0.017739,-1.4711e-12,0.03558,0.000383,0,4.0642e-05,-2.3371e-14,5.9292e-21,0,0.69866,-3.5997e-10,0.037673,0.028314,1,0.383,1,0.025,0
0.017419,-1.5212e-12,0.036121,0.000384,0,3.9529e-05,-2.3792e-14,6.7763e-21,0,0.67354,-3.6614e-10,0.036765,0.027312,1,0.384,1,0.025,0
0.017104,-1.633e-12,0.036669,0.000385,0,3.8444e-05,-2.4884e-14,6.7763e-21,0,0.64904,-3.8245e-10,0.035883,0.026337,1,0.385,1,0.025,0
0.016794,-1.6367e-12,0.037225,0.000386,0,3.7385e-05,-2.4911e-14,5.9292e-21,0,0.62517,-3.8263e-10,0.035026,0.025386,1,0.386,1,0.025,0
0.01649,-9.2189e-13,0.037789,0.000387,0,3.6353e-05,-1.7675e-14,5.9292e-21,0,0.60193,-2.7302e-10,0.034194,0.02446,1,0.387,1,0.025,0
0.016192,-1.7575e-12,0.03836,0.000388,0,3.5347e-05,-2.5782e-14,5.9292e-21,0,0.5793,-3.9541e-10,0.033387,0.023559,1,0.388,1,0.025,0
0.0159,-1.8656e-12,0.038936,0.000389,0,3.4369e-05,-2.62e-14,6.7763e-21,0,0.5573,-4.0148e-10,0.032605,0.022683,1,0.389,1,0.025,0
0.015613,-1.8712e-12,0.03952,0.00039,0,3.3417e-05,-2.6811e-14,7.6233e-21,0,0.53592,-4.1044e-10,0.031847,0.021832,1,0.39,1,0.025,0
0.015333,-2.4561e-12,0.040111,0.000391,0,3.2492e-05,-6.0139e-14,5.0822e-21,0,0.51515,-9.127e-10,0.031114,0.021005,1,0.391,1,0.025,0
0.015058,-1.8739e-12,0.040708,0.000392,0,3.1593e-05,-2.7748e-14,5.0822e-21,0,0.495,-4.2368e-10,0.030406,0.020203,1,0.392,1,0.025,0
0.01479,-2.4033e-12,0.041312,0.000393,0,3.0721e-05,-3.2817e-14,6.7763e-21,0,0.47545,-4.9973e-10,0.029721,0.019425,1,0.393,1,0.025,0
0.014527,-2.262e-12,0.041923,0.000394,0,2.9875e-05,-2.5787e-14,5.9292e-21,0,0.45651,-3.9361e-10,0.029061,0.018671,1,0.394,1,0.025,0
0.01427,-1.9973e-12,0.042542,0.000395,0,2.9054e-05,-2.9365e-14,5.9292e-21,0,0.43816,-4.4713e-10,0.028424,0.017941,1,0.395,1,0.025,0
0.01402,-1.957e-12,0.043167,0.000396,0,2.826e-05,-2.9375e-14,6.7763e-21,0,0.4204,-4.4697e-10,0.027811,0.017235,1,0.396,1,0.025,0
0.013775,-8.0057e-12,0.043799,0.000397,0,2.7491e-05,-2.9906e-14,5.0822e-21,0,0.40324,-4.5486e-10,0.027222,0.016552,1,0.397,1,0.025,0
0.013537,-1.8709e-12,0.044439,0.000398,0,2.6748e-05,-3.1557e-14,5.9292e-21,0,0.38667,-4.7898e-10,0.026656,0.015893,1,0.398,1,0.025,0
0.013304,-2.2843e-12,0.045085,0.000399,0,2.6029e-05,-3.0127e-14,5.9292e-21,0,0.37066,-4.5721e-10,0.026112,0.015257,1,0.399,1,0.025,0
0.013077,-2.3115e-12,0.045737,0.0004,0,2.5335e-05,-3.0312e-14,6.7763e-21,0,0.35522,-4.5965e-10,0.025591,0.014643,1,0.4,1,0.025,0
0.012857,-3.0927e-12,0.046396,0.000401,0,2.4667e-05,-3.0033e-14,5.9292e-21,0,0.34035,-4.5516e-10,0.025092,0.014052,1,0.401,1,0.025,0
0.012642,-2.3946e-12,0.047062,0.000402,0,2.4021e-05,-3.0705e-14,5.9292e-21,0,0.32601,-4.6486e-10,0.024614,0.013482,1,0.402,1,0.025,0
0.012434,-3.0183e-12,0.047734,0.000403,0,2.34e-05,-3.0938e-14,6.7763e-21,0,0.31223,-4.6802e-10,0.024158,0.012935,1,0.403,1,0.025,0
0.012231,-2.5507e-12,0.048412,0.000404,0,2.2803e-05,-3.1167e-14,5.0822e-21,0,0.29898,-4.7106e-10,0.023723,0.012409,1,0.404,1,0.025,0
0.012034,-2.4876e-12,0.049096,0.000405,0,2.2228e-05,-3.1358e-14,9.3174e-21,0,0.28626,-4.7354e-10,0.023309,0.011903,1,0.405,1,0.025,0
0.011843,-2.7743e-12,0.049786,0.000406,0,2.1676e-05,-2.9965e-14,5.9292e-21,0,0.27405,-4.524e-10,0.022915,0.011419,1,0.406,1,0.025,0
0.011658,-2.3474e-12,0.050482,0.000407,0,2.1146e-05,-3.909e-14,6.7763e-21,0,0.26235,-5.881e-10,0.022541,0.010954,1,0.407,1,0.025,0
0.011478,-2.5791e-12,0.051183,0.000408,0,2.0639e-05,-3.1987e-14,5.9292e-21,0,0.25114,-4.8179e-10,0.022187,0.01051,1,0.408,1,0.025,0
0.011305,-4.7603e-12,0.051891,0.000409,0,2.0153e-05,-1.7395e-14,5.9292e-21,0,0.24043,-2.6421e-10,0.021852,0.010085,1,0.409,1,0.025,0
0.011137,-2.3555e-12,0.052597,0.00041,0,1.9688e-05,-2.8063e-14,7.6233e-21,0,0.23019,-4.2271e-10,0.021535,0.0096793,1,0.41,1,0.025,0
0.010974,-2.6934e-12,0.053308,0.000411,0,1.9243e-05,-3.1356e-14,6.7763e-21,0,0.22041,-4.7135e-10,0.021236,0.0092917,1,0.411,1,0.025,0
0.010816,-2.7046e-12,0.054025,0.000412,0,1.8818e-05,-3.1333e-14,5.0822e-21,0,0.21108,-4.7064e-10,0.020955,0.0089224,1,0.412,1,0.025,0
0.010664,-1.6033e-12,0.054747,0.000413,0,1.8414e-05,-2.7068e-14,6.7763e-21,0,0.2022,-4.0687e-10,0.020692,0.0085708,1,0.413,1,0.025,0
0.010518,-5.1092e-12,0.055474,0.000414,0,1.8029e-05,-2.2566e-14,5.0822e-21,0,0.19377,-3.3996e-10,0.020446,0.008237,1,0.414,1,0.025,0
0.010377,-2.2391e-12,0.056205,0.000415,0,1.7662e-05,-2.8376e-14,5.0822e-21,0,0.18575,-4.2569e-10,0.020216,0.0079199,1,0.415,1,0.025,0
0.01024,-2.7802e-12,0.056942,0.000416,0,1.7314e-05,-3.0263e-14,5.0822e-21,0,0.17815,-4.5336e-10,0.020002,0.0076193,1,0.416,1,0.025,0
0.010109,-2.745e-12,0.057684,0.000417,0,1.6984e-05,-3.0305e-14,4.2352e-21,0,0.17095,-4.536e-10,0.019804,0.0073347,1,0.417,1,0.025,0
0.0099827,-2.7582e-12,0.058431,0.000418,0,1.6672e-05,-3.0082e-14,5.9292e-21,0,0.16413,-4.4993e-10,0.01962,0.0070657,1,0.418,1,0.025,0
0.0098612,-2.9724e-12,0.059182,0.000419,0,1.6376e-05,-1.5907e-14,6.7763e-21,0,0.1577,-2.4014e-10,0.019452,0.0068119,1,0.419,1,0.025,0
0.0097444,-2.8978e-12,0.059938,0.00042,0,1.6097e-05,-2.8251e-14,5.9292e-21,0,0.15164,-4.2223e-10,0.019298,0.0065727,1,0.42,1,0.025,0
0.0096323,-3.0868e-12,0.060699,0.000421,0,1.5834e-05,2.484e-14,7.6233e-21,0,0.14593,3.6115e-10,0.019157,0.0063478,1,0.421,1,0.025,0
0.0095245,-2.8663e-12,0.061464,0.000422,0,1.5586e-05,-2.6913e-14,7.6233e-21,0,0.14055,-4.0197e-10,0.019029,0.0061363,1,0.422,1,0.025,0
0.0094213,-2.8733e-12,0.062234,0.000423,0,1.5354e-05,-2.6967e-14,4.2352e-21,0,0.13553,-4.0243e-10,0.018915,0.0059385,1,0.423,1,0.025,0
0.0093222,-2.9663e-12,0.063009,0.000424,0,1.5136e-05,-2.3841e-14,5.0822e-21,0,0.13081,-3.5609e-10,0.018812,0.0057534,1,0.424,1,0.025,0
0.0092274,-2.8495e-12,0.063789,0.000425,0,1.4932e-05,-2.6256e-14,8.4703e-21,0,0.12641,-3.9132e-10,0.018722,0.0055808,1,0.425,1,0.025,0
0.0091366,-2.8634e-12,0.064573,0.000426,0,1.4742e-05,-2.6549e-14,6.7763e-21,0,0.12232,-3.9529e-10,0.018643,0.0054202,1,0.426,1,0.025,0
0.0090497,-2.7818e-12,0.065361,0.000427,0,1.4564e-05,-2.6223e-14,5.0822e-21,0,0.1185,-3.9017e-10,0.018575,0.005271,1,0.427,1,0.025,0
0.0089666,-2.9948e-12,0.066155,0.000428,0,1.44e-05,-6.3389e-14,5.9292e-21,0,0.11497,-9.3472e-10,0.018518,0.005133,1,0.428,1,0.025,0
0.0088872,-2.6313e-12,0.066953,0.000429,0,1.4248e-05,-2.7786e-14,5.9292e-21,0,0.11171,-4.1229e-10,0.018471,0.0050058,1,0.429,1,0.025,0
0.0088113,-2.5929e-12,0.067756,0.00043,0,1.4107e-05,-2.7107e-14,4.2352e-21,0,0.10871,-4.0198e-10,0.018433,0.0048887,1,0.43,1,0.025,0
0.008739,-1.7599e-12,0.068564,0.000431,0,1.3978e-05,-2.2282e-14,6.7763e-21,0,0.10595,-3.3093e-10,0.018405,0.0047816,1,0.431,1,0.025,0
0.00867,-6.6522e-13,0.069377,0.000432,0,1.386e-05,-3.8053e-14,7.6233e-21,0,0.10343,-5.6106e-10,0.018385,0.0046841,1,0.432,1,0.025,0
0.0086041,-1.9794e-12,0.070194,0.000433,0,1.3752e-05,-2.8632e-14,6.7763e-21,0,0.10113,-4.2314e-10,0.018374,0.0045953,1,0.433,1,0.025,0
0.0085415,-2.3906e-12,0.071017,0.000434,0,1.3654e-05,-2.6426e-14,5.9292e-21,0,0.099064,-3.9062e-10,0.018372,0.0045156,1,0.434,1,0.025,0
0.0084817,-2.3816e-12,0.071845,0.000435,0,1.3566e-05,-2.5968e-14,5.0822e-21,0,0.097196,-3.8358e-10,0.018376,0.004444,1,0.435,1,0.025,0
0.0084249,-2.3373e-12,0.072677,0.000436,0,1.3487e-05,-2.56e-14,6.7763e-21,0,0.095529,-3.7787e-10,0.018389,0.0043803,1,0.436,1,0.025,0
0.0083709,-2.3217e-12,0.073516,0.000437,0,1.3417e-05,-2.5301e-14,5.9292e-21,0,0.094056,-3.7317e-10,0.018408,0.0043245,1,0.437,1,0.025,0
0.0083195,-2.2521e-12,0.074354,0.000438,0,1.3356e-05,-2.485e-14,5.0822e-21,0,0.092763,-3.6626e-10,0.018434,0.0042757,1,0.438,1,0.025,0
0.0082706,-2.2547e-12,0.075197,0.000439,0,1.3302e-05,-2.4675e-14,5.0822e-21,0,0.09163,-3.6338e-10,0.018466,0.0042334,1,0.439,1,0.025,0
0.0082241,-2.2161e-12,0.076044,0.00044,0,1.3255e-05,-2.4377e-14,5.9292e-21,0,0.090662,-3.5871e-10,0.018503,0.0041976,1,0.44,1,0.025,0
0.0081799,-2.7962e-12,0.076896,0.000441,0,1.3216e-05,-2.797e-14,6.7763e-21,0,0.089844,-4.105e-10,0.018546,0.0041678,1,0.441,1,0.025,0
0.008138,-2.1559e-12,0.077755,0.000442,0,1.3183e-05,-2.3658e-14,5.9292e-21,0,0.089177,-3.476e-10,0.018595,0.004144,1,0.442,1,0.025,0
0.0080982,-2.1977e-12,0.078619,0.000443,0,1.3158e-05,-1.896e-14,5.0822e-21,0,0.08865,-2.7922e-10,0.018648,0.0041258,1,0.443,1,0.025,0
0.0080605,-2.1197e-12,0.079489,0.000444,0,1.3138e-05,-2.3023e-14,6.7763e-21,0,0.088256,-3.3779e-10,0.018706,0.0041129,1,0.444,1,0.025,0
0.0080247,-2.0606e-12,0.080366,0.000445,0,1.3125e-05,-2.2738e-14,7.6233e-21,0,0.087989,-3.3334e-10,0.018768,0.004105,1,0.445,1,0.025,0
0.0079908,-1.4169e-12,0.081249,0.000446,0,1.3117e-05,-1.6851e-14,6.7763e-21,0,0.087847,-2.4798e-10,0.018834,0.0041021,1,0.446,1,0.025,0
0.0079587,-2.007e-12,0.082138,0.000447,0,1.3115e-05,-2.2057e-14,4.2352e-21,0,0.087813,-3.2291e-10,0.018904,0.0041035,1,0.447,1,0.025,0
0.0079284,-1.992e-12,0.083033,0.000448,0,1.3119e-05,-2.1776e-14,4.2352e-21,0,0.087897,-3.1854e-10,0.018978,0.0041096,1,0.448,1,0.025,0
0.0078997,-1.9531e-12,0.083936,0.000449,0,1.3127e-05,-2.1535e-14,5.9292e-21,0,0.088081,-3.1476e-10,0.019056,0.0041196,1,0.449,1,0.025,0
0.0078725,-7.4114e-13,0.084841,0.00045,0,1.3139e-05,-4.9013e-14,5.9292e-21,0,0.088359,-7.0917e-10,0.019136,0.0041334,1,0.45,1,0.025,0
0.0078468,-1.8784e-12,0.085754,0.000451,0,1.3156e-05,-2.3193e-14,4.2352e-21,0,0.088726,-3.378e-10,0.019219,0.0041507,1,0.451,1,0.025,0
0.0078225,-1.5535e-12,0.086674,0.000452,0,1.3178e-05,-1.8809e-14,6.7763e-21,0,0.089182,-2.7453e-10,0.019305,0.0041715,1,0.452,1,0.025,0
0.0077995,-1.7502e-12,0.087601,0.000453,0,1.3203e-05,-2.1134e-14,6.7763e-21,0,0.08972,-3.076e-10,0.019393,0.0041956,1,0.453,1,0.025,0
0.0077779,-1.7452e-12,0.088536,0.000454,0,1.3233e-05,-2.0949e-14,8.4703e-21,0,0.090339,-3.0463e-10,0.019484,0.0042229,1,0.454,1,0.025,0
0.0077574,-1.8011e-12,0.089477,0.000455,0,1.3266e-05,-2.3363e-14,5.9292e-21,0,0.091028,-3.3882e-10,0.019577,0.004253,1,0.455,1,0.025,0
0.0077382,-1.6853e-12,0.090427,0.000456,0,1.3302e-05,-2.0136e-14,5.9292e-21,0,0.091794,-2.9237e-10,0.019672,0.0042861,1,0.456,1,0.025,0
0.00772,-1.6361e-12,0.091384,0.000457,0,1.3342e-05,-2.0065e-14,5.0822e-21,0,0.092621,-2.9103e-10,0.019769,0.0043216,1,0.457,1,0.025,0
0.0077029,-1.5893e-12,0.092348,0.000458,0,1.3385e-05,-2.0157e-14,7.6233e-21,0,0.093516,-2.9203e-10,0.019868,0.0043598,1,0.458,1,0.025,0
0.0076869,-1.8135e-12,0.093321,0.000459,0,1.3432e-05,-2.0857e-14,6.7763e-21,0,0.094475,-3.0174e-10,0.019968,0.0044006,1,0.459,1,0.025,0
0.0076718,-1.5481e-12,0.094302,0.00046,0,1.3481e-05,-1.9354e-14,5.9292e-21,0,0.095485,-2.7997e-10,0.02007,0.0044433,1,0.46,1,0.025,0
0.0076577,-9.2232e-13,0.09529,0.000461,0,1.3533e-05,-2.2201e-14,5.9292e-21,0,0.096558,-3.2001e-10,0.020174,0.0044886,1,0.461,1,0.025,0
0.0076444,-1.4891e-12,0.096287,0.000462,0,1.3588e-05,-1.9016e-14,6.7763e-21,0,0.097682,-2.7452e-10,0.020278,0.0045358,1,0.462,1,0.025,0
0.0076321,-1.478e-12,0.097293,0.000463,0,1.3645e-05,-1.8518e-14,5.9292e-21,0,0.098856,-2.6716e-10,0.020384,0.004585,1,0.463,1,0.025,0
0.0076205,-1.6055e-12,0.098307,0.000464,0,1.3706e-05,-1.8412e-14,5.0822e-21,0,0.10008,-2.6538e-10,0.02049,0.004636,1,0.464,1,0.025,0
0.0076097,-1.4456e-12,0.09933,0.000465,0,1.3768e-05,-1.8224e-14,6.7763e-21,0,0.10134,-2.6239e-10,0.020598,0.0046889,1,0.465,1,0.025,0
0.0075996,7.1005e-12,0.10036,0.000466,0,1.3833e-05,-1.1042e-13,6.7763e-21,0,0.10266,-1.5635e-09,0.020707,0.0047435,1,0.466,1,0.025,0
0.0075903,-2.0228e-12,0.1014,0.000467,0,1.39e-05,-4.0555e-14,6.7763e-21,0,0.10401,-5.7637e-10,0.020816,0.0047999,1,0.467,1,0.025,0
0.0075817,-9.9764e-13,0.10245,0.000468,0,1.397e-05,-2.1248e-14,5.9292e-21,0,0.10541,-3.0347e-10,0.020926,0.0048578,1,0.468,1,0.025,0
0.0075738,-1.0866e-12,0.10351,0.000469,0,1.4041e-05,-1.9749e-14,6.7763e-21,0,0.10684,-2.82e-10,0.021037,0.0049172,1,0.469,1,0.025,0
0.0075664,-1.9758e-12,0.10458,0.00047,0,1.4115e-05,-1.8034e-14,6.7763e-21,0,0.10832,-2.576e-10,0.021148,0.0049781,1,0.47,1,0.025,0
0.0075597,2.3188e-12,0.10565,0.000471,0,1.4191e-05,-7.0137e-15,6.7763e-21,0,0.10982,-1.0255e-10,0.02126,0.0050404,1,0.471,1,0.025,0
0.0075536,-9.873e-13,0.10674,0.000472,0,1.4268e-05,-1.8324e-14,6.7763e-21,0,0.11137,-2.6099e-10,0.021373,0.005104,1,0.472,1,0.025,0
0.007548,-1.5816e-12,0.10783,0.000473,0,1.4348e-05,-1.6684e-14,5.9292e-21,0,0.11294,-2.3777e-10,0.021485,0.0051689,1,0.473,1,0.025,0
0.0075431,-9.3085e-13,0.10894,0.000474,0,1.4429e-05,-1.8135e-14,5.9292e-21,0,0.11455,-2.5772e-10,0.021598,0.0052353,1,0.474,1,0.025,0
0.0075386,3.354e-13,0.11005,0.000475,0,1.4513e-05,-2.5665e-14,6.7763e-21,0,0.11619,-3.6271e-10,0.021712,0.0053027,1,0.475,1,0.025,0
0.0075346,-1.1711e-12,0.11117,0.000476,0,1.4598e-05,-1.6996e-14,7.6233e-21,0,0.11786,-2.4107e-10,0.021825,0.0053711,1,0.476,1,0.025,0
0.0075311,-4.5422e-13,0.1123,0.000477,0,1.4685e-05,-2.0161e-14,5.0822e-21,0,0.11956,-2.8489e-10,0.021939,0.0054409,1,0.477,1,0.025,0
0.0075281,-5.3694e-13,0.11345,0.000478,0,1.4773e-05,-1.8017e-14,6.7763e-21,0,0.12128,-2.5464e-10,0.022053,0.0055116,1,0.478,1,0.025,0
0.0075256,-1.608e-12,0.1146,0.000479,0,1.4864e-05,-1.3244e-14,5.9292e-21,0,0.12305,-1.8794e-10,0.022167,0.0055837,1,0.479,1,0.025,0
0.0075236,-5.9367e-13,0.11576,0.00048,0,1.4956e-05,-1.8397e-14,4.2352e-21,0,0.12483,-2.5928e-10,0.022282,0.0056569,1,0.48,1,0.025,0
0.007522,-6.8787e-13,0.11693,0.000481,0,1.5049e-05,-1.7849e-14,6.7763e-21,0,0.12664,-2.5131e-10,0.022396,0.0057309,1,0.481,1,0.025,0
0.0075208,-4.9362e-12,0.11811,0.000482,0,1.5145e-05,6.1014e-14,5.9292e-21,0,0.12848,8.3928e-10,0.02251,0.005806,1,0.482,1,0.025,0
0.00752,-9.2038e-13,0.1193,0.000483,0,1.5242e-05,-1.4081e-14,5.0822e-21,0,0.13034,-1.9886e-10,0.022624,0.0058819,1,0.483,1,0.025,0
0.0075196,-9.5805e-13,0.1205,0.000484,0,1.534e-05,-1.5067e-14,5.9292e-21,0,0.13224,-2.1217e-10,0.022739,0.0059591,1,0.484,1,0.025,0
0.0075196,-1.6908e-12,0.12171,0.000485,0,1.5441e-05,-1.0941e-14,4.2352e-21,0,0.13415,-1.5495e-10,0.022853,0.0060371,1,0.485,1,0.025,0
0.0075201,-5.9196e-13,0.12293,0.000486,0,1.5543e-05,-1.6652e-14,5.9292e-21,0,0.13609,-2.3345e-10,0.022967,0.0061162,1,0.486,1,0.025,0
0.0075209,-1.1652e-12,0.12417,0.000487,0,1.5646e-05,-1.3502e-14,5.0822e-21,0,0.13806,-1.8977e-10,0.023082,0.0061962,1,0.487,1,0.025,0
0.0075222,-1.6398e-12,0.12541,0.000488,0,1.5752e-05,-1.041e-14,5.9292e-21,0,0.14006,-1.4705e-10,0.023196,0.0062774,1,0.488,1,0.025,0
0.0075237,-1.3407e-13,0.12667,0.000489,0,1.5859e-05,-1.9661e-14,7.6233e-21,0,0.14207,-2.7377e-10,0.02331,0.0063592,1,0.489,1,0.025,0
0.0075257,-2.0163e-12,0.12793,0.00049,0,1.5968e-05,-8.2517e-15,6.7763e-21,0,0.14411,-1.1705e-10,0.023424,0.0064421,1,0.49,1,0.025,0
0.007528,-8.6955e-13,0.12921,0.000491,0,1.6078e-05,-1.3452e-14,5.9292e-21,0,0.14618,-1.8805e-10,0.023537,0.0065259,1,0.491,1,0.025,0
0.0075306,-3.9972e-13,0.1305,0.000492,0,1.619e-05,-1.3658e-14,6.7763e-21,0,0.14827,-1.9042e-10,0.023651,0.0066105,1,0.492,1,0.025,0
0.0075336,-9.0968e-13,0.13179,0.000493,0,1.6303e-05,-1.3617e-14,5.9292e-21,0,0.15038,-1.8979e-10,0.023764,0.0066961,1,0.493,1,0.025,0
0.0075368,-2.2641e-13,0.13308,0.000494,0,1.6417e-05,-1.6567e-14,5.0822e-21,0,0.15249,-2.2963e-10,0.023877,0.0067817,1,0.494,1,0.025,0
0.0075404,-7.5145e-13,0.13439,0.000495,0,1.6533e-05,-1.4999e-14,5.0822e-21,0,0.15464,-2.0803e-10,0.023989,0.0068686,1,0.495,1,0.025,0
0.0050679,-9.8525e-13,0.13599,0.000496,0,6.6704e-06,-1.2953e-14,5.9292e-21,0,-0.042813,-1.7986e-10,0.016106,-0.001027,1,0.496,1,0.025,0
0.0050288,-3.8823e-13,0.13739,0.000497,0,6.6018e-06,-1.6139e-14,5.0822e-21,0,-0.04403,-2.2272e-10,0.016077,-0.0010748,1,0.497,1,0.025,0
0.0049993,-1.0585e-12,0.1388,0.000498,0,6.5725e-06,-1.2055e-14,6.7763e-21,0,-0.044458,-1.6704e-10,0.016079,-0.0010912,1,0.498,1,0.025,0
0.0049724,-6.5084e-13,0.1402,0.000499,0,6.554e-06,-1.4144e-14,5.0822e-21,0,-0.044672,-1.9508e-10,0.016089,-0.0010991,1,0.499,1,0.025,0
0.0049478,-8.6937e-13,0.14159,0.0005,0,6.5441e-06,-1.3708e-14,5.9292e-21,0,-0.044713,-1.889e-10,0.016106,-0.0011,1,0.5,1,0.025,0
0.0049249,-6.2742e-13,0.143,0.000501,0,6.5415e-06,-1.4092e-14,6.7763e-21,0,-0.044609,-1.9374e-10,0.016126,-0.0010952,1,0.501,1,0.025,0
0.0049035,-8.7587e-13,0.14441,0.000502,0,6.5451e-06,-1.2264e-14,5.0822e-21,0,-0.044383,-1.6889e-10,0.016151,-0.0010856,1,0.502,1,0.025,0
0.0048834,-7.1965e-13,0.14582,0.000503,0,6.5537e-06,-1.2958e-14,5.9292e-21,0,-0.044059,-1.7791e-10,0.016179,-0.0010721,1,0.503,1,0.025,0
0.0048643,-4.284e-13,0.14724,0.000504,0,6.5664e-06,-1.5035e-14,5.0822e-21,0,-0.043654,-2.0536e-10,0.016208,-0.0010553,1,0.504,1,0.025,0
0.004846,-8.1936e-13,0.14868,0.000505,0,6.5826e-06,-1.2387e-14,5.0822e-21,0,-0.043179,-1.6969e-10,0.016239,-0.0010359,1,0.505,1,0.025,0
0.0048285,-6.512e-13,0.15011,0.000506,0,6.6018e-06,-1.3264e-14,7.6233e-21,0,-0.04265,-1.8109e-10,0.016272,-0.0010143,1,0.506,1,0.025,0
0.0048116,-1.5229e-12,0.15154,0.000507,0,6.6232e-06,-6.4514e-15,5.0822e-21,0,-0.042076,-9.0291e-11,0.016305,-0.00099096,1,0.507,1,0.025,0
0.0047952,-3.1932e-13,0.15298,0.000508,0,6.6468e-06,-1.3747e-14,7.6233e-21,0,-0.041463,-1.8695e-10,0.016338,-0.00096611,1,0.508,1,0.025,0
0.0047793,-6.1656e-13,0.15441,0.000509,0,6.672e-06,-1.2055e-14,5.9292e-21,0,-0.04082,-1.6415e-10,0.016372,-0.00094007,1,0.509,1,0.025,0
0.0047637,-2.6214e-13,0.15585,0.00051,0,6.6986e-06,-1.5958e-14,5.0822e-21,0,-0.04015,-2.1548e-10,0.016405,-0.00091303,1,0.51,1,0.025,0
0.0047484,-7.2394e-13,0.1573,0.000511,0,6.7268e-06,-1.3629e-14,7.6233e-21,0,-0.039451,-1.8436e-10,0.016438,-0.00088486,1,0.511,1,0.025,0
0.0047335,-5.8185e-13,0.15876,0.000512,0,6.7563e-06,-1.4254e-14,5.0822e-21,0,-0.038729,-1.9226e-10,0.016471,-0.00085585,1,0.512,1,0.025,0
0.0047189,-5.9709e-13,0.16022,0.000513,0,6.7868e-06,-1.4017e-14,5.0822e-21,0,-0.037989,-1.8879e-10,0.016503,-0.00082618,1,0.513,1,0.025,0
0.0047045,-5.6875e-13,0.16169,0.000514,0,6.8183e-06,-1.4506e-14,5.9292e-21,0,-0.037232,-1.9488e-10,0.016535,-0.00079583,1,0.514,1,0.025,0
0.0046904,-6.205e-13,0.16315,0.000515,0,6.8508e-06,-1.4653e-14,5.0822e-21,0,-0.036459,-1.9642e-10,0.016566,-0.00076493,1,0.515,1,0.025,0
0.0046764,-8.1105e-13,0.16462,0.000516,0,6.884e-06,-1.1405e-14,4.2352e-21,0,-0.035674,-1.5329e-10,0.016596,-0.00073356,1,0.516,1,0.025,0
0.0046626,-5.8639e-13,0.1661,0.000517,0,6.918e-06,-1.5249e-14,5.9292e-21,0,-0.034873,-2.0352e-10,0.016626,-0.00070166,1,0.517,1,0.025,0
0.0046491,-5.8344e-13,0.16759,0.000518,0,6.953e-06,-1.5531e-14,5.0822e-21,0,-0.034058,-2.068e-10,0.016654,-0.00066922,1,0.518,1,0.025,0
0.0046357,-5.3078e-13,0.16909,0.000519,0,6.9889e-06,-1.8747e-14,5.0822e-21,0,-0.033226,-2.482e-10,0.016682,-0.00063618,1,0.519,1,0.025,0
0.0046225,-5.9604e-13,0.17059,0.00052,0,7.0256e-06,-1.7731e-14,5.9292e-21,0,-0.032381,-2.3452e-10,0.016708,-0.00060267,1,0.52,1,0.025,0
0.0046094,-6.3627e-13,0.17209,0.000521,0,7.063e-06,-1.7375e-14,5.9292e-21,0,-0.031527,-2.2948e-10,0.016734,-0.00056882,1,0.521,1,0.025,0
0.0045965,-4.1962e-13,0.1736,0.000522,0,7.101e-06,-2.1441e-14,5.9292e-21,0,-0.030662,-2.8138e-10,0.016758,-0.0005346,1,0.522,1,0.025,0
0.0045838,-6.9469e-13,0.17513,0.000523,0,7.14e-06,-2.0174e-14,5.9292e-21,0,-0.029781,-2.6462e-10,0.016782,-0.00049985,1,0.523,1,0.025,0
0.0045712,-7.0542e-13,0.17665,0.000524,0,7.1796e-06,-2.081e-14,5.9292e-21,0,-0.02889,-2.7228e-10,0.016804,-0.00046472,1,0.524,1,0.025,0
0.0045587,-6.3042e-13,0.17818,0.000525,0,7.2198e-06,-2.4941e-14,5.9292e-21,0,-0.027991,-3.2465e-10,0.016825,-0.00042933,1,0.525,1,0.025,0
0.0045464,-6.7855e-13,0.1797,0.000526,0,7.2605e-06,-2.3601e-14,6.7763e-21,0,-0.027084,-3.0686e-10,0.016846,-0.0003937,1,0.526,1,0.025,0
0.0045342,-8.464e-13,0.18122,0.000527,0,7.3016e-06,-2.5959e-14,5.9292e-21,0,-0.026174,-3.3641e-10,0.016865,-0.00035795,1,0.527,1,0.025,0
0.0045221,-7.4511e-13,0.18275,0.000528,0,7.3432e-06,-2.8906e-14,5.0822e-21,0,-0.025258,-3.732e-10,0.016882,-0.00032204,1,0.528,1,0.025,0
0.0045101,-8.3404e-13,0.18428,0.000529,0,7.3855e-06,-2.9492e-14,5.0822e-21,0,-0.02433,-3.7991e-10,0.016899,-0.00028573,1,0.529,1,0.025,0
0.0044983,-9.6495e-13,0.18581,0.00053,0,7.4284e-06,-3.0071e-14,6.7763e-21,0,-0.023392,-3.8658e-10,0.016914,-0.00024911,1,0.53,1,0.025,0
0.0044865,-9.4083e-13,0.18735,0.000531,0,7.472e-06,-3.294e-14,6.7763e-21,0,-0.022445,-4.2205e-10,0.016928,-0.00021214,1,0.531,1,0.025,0
0.004475,-7.5656e-13,0.18889,0.000532,0,7.5165e-06,-3.5207e-14,5.9292e-21,0,-0.021481,-4.4967e-10,0.01694,-0.00017461,1,0.532,1,0.025,0
0.0044637,-8.1641e-13,0.19043,0.000533,0,7.5621e-06,-3.8393e-14,5.9292e-21,0,-0.020501,-4.8884e-10,0.016952,-0.00013649,1,0.533,1,0.025,0
0.0044527,-1.1687e-12,0.19198,0.000534,0,7.6092e-06,-4.4839e-14,6.7763e-21,0,-0.019495,-5.6906e-10,0.016962,-9.74e-05,1,0.534,1,0.025,0
0.0044421,-8.6961e-13,0.19355,0.000535,0,7.6585e-06,-4.3982e-14,5.9292e-21,0,-0.018451,-5.5681e-10,0.016971,-5.6905e-05,1,0.535,1,0.025,0
0.004432,-1.0434e-12,0.19512,0.000536,0,7.7106e-06,-5.3049e-14,5.9292e-21,0,-0.017358,-6.6924e-10,0.016981,-1.45e-05,1,0.536,1,0.025,0
0.0044227,-6.5364e-13,0.1967,0.000537,0,7.7663e-06,-5.2976e-14,5.9292e-21,0,-0.016198,-6.667e-10,0.01699,3.0465e-05,1,0.537,1,0.025,0
0.0044144,-6.8402e-13,0.19831,0.000538,0,7.8271e-06,-5.9841e-14,5.9292e-21,0,-0.014947,-7.5004e-10,0.017,7.8929e-05,1,0.538,1,0.025,0
0.0044073,4.1913e-12,0.19993,0.000539,0,7.8939e-06,-1.1194e-13,5.0822e-21,0,-0.013589,-1.3978e-09,0.017012,0.00013162,1,0.539,1,0.025,0
0.0044017,-4.4842e-13,0.20158,0.00054,0,7.9674e-06,-6.5455e-14,5.9292e-21,0,-0.012109,-8.1645e-10,0.017026,0.00018906,1,0.54,1,0.025,0
0.0043975,-1.9858e-12,0.20324,0.000541,0,8.0483e-06,-8.0969e-14,5.9292e-21,0,-0.010498,-1.0078e-09,0.017042,0.00025161,1,0.541,1,0.025,0
0.0043949,-9.3424e-13,0.20494,0.000542,0,8.1367e-06,-7.8165e-14,6.7763e-21,0,-0.0087531,-9.6977e-10,0.01706,0.00031941,1,0.542,1,0.025,0
0.0043937,-1.1358e-12,0.20665,0.000543,0,8.2324e-06,-6.6928e-14,5.0822e-21,0,-0.006881,-8.2884e-10,0.01708,0.00039218,1,0.543,1,0.025,0
0.0043939,-2.6622e-12,0.20839,0.000544,0,8.3347e-06,-8.3918e-14,7.6233e-21,0,-0.0048926,-1.0373e-09,0.017103,0.0004695,1,0.544,1,0.025,0
0.0043954,-3.4316e-13,0.21014,0.000545,0,8.4431e-06,-5.1044e-14,6.7763e-21,0,-0.0028011,-6.2968e-10,0.017127,0.00055086,1,0.545,1,0.025,0
0.004398,-1.7802e-12,0.2119,0.000546,0,8.5569e-06,-6.2088e-14,5.0822e-21,0,-0.00061923,-7.6459e-10,0.017153,0.00063575,1,0.546,1,0.025,0
0.0044016,-1.0424e-12,0.21367,0.000547,0,8.6753e-06,-4.7619e-14,5.0822e-21,0,0.0016368,-5.8553e-10,0.01718,0.00072354,1,0.547,1,0.025,0
0.004406,-1.2906e-12,0.21545,0.000548,0,8.7975e-06,-4.5394e-14,5.0822e-21,0,0.003952,-5.5746e-10,0.017208,0.00081364,1,0.548,1,0.025,0
0.004411,-1.745e-12,0.21724,0.000549,0,8.9229e-06,-4.6856e-14,5.9292e-21,0,0.0063173,-5.7426e-10,0.017236,0.00090568,1,0.549,1,0.025,0
0.0044166,-9.7778e-13,0.21905,0.00055,0,9.0512e-06,-1.9906e-14,6.7763e-21,0,0.008722,-2.4595e-10,0.017264,0.00099923,1,0.55,1,0.025,0
0.0044225,-1.1424e-12,0.22086,0.000551,0,9.1817e-06,-3.1529e-14,5.0822e-21,0,0.011156,-3.8574e-10,0.017292,0.0010939,1,0.551,1,0.025,0
0.0044288,-1.2207e-12,0.22269,0.000552,0,9.314e-06,-3.0425e-14,6.7763e-21,0,0.013611,-3.7171e-10,0.01732,0.0011893,1,0.552,1,0.025,0
0.0044353,-1.1114e-12,0.22453,0.000553,0,9.4478e-06,-3.1237e-14,7.6233e-21,0,0.016082,-3.8038e-10,0.017346,0.0012854,1,0.553,1,0.025,0
0.004442,-1.0482e-12,0.22639,0.000554,0,9.5829e-06,-2.4075e-14,6.7763e-21,0,0.018563,-2.9367e-10,0.017372,0.0013818,1,0.554,1,0.025,0
0.0044488,-7.2412e-13,0.22825,0.000555,0,9.7191e-06,-1.9617e-14,5.9292e-21,0,0.021054,-2.393e-10,0.017396,0.0014785,1,0.555,1,0.025,0
0.0044558,-6.7405e-13,0.23013,0.000556,0,9.8564e-06,-1.7382e-14,5.9292e-21,0,0.023551,-2.1202e-10,0.01742,0.0015754,1,0.556,1,0.025,0
0.0044629,-6.5679e-13,0.23202,0.000557,0,9.9945e-06,-1.9199e-14,5.0822e-21,0,0.026049,-2.3317e-10,0.017442,0.0016723,1,0.557,1,0.025,0
0.00447,-6.1719e-13,0.23391,0.000558,0,1.0133e-05,-1.6812e-14,6.7763e-21,0,0.028547,-2.044e-10,0.017464,0.0017692,1,0.558,1,0.025,0
0.0044772,-5.8082e-13,0.2358,0.000559,0,1.0273e-05,-1.6477e-14,5.9292e-21,0,0.031044,-2.0001e-10,0.017484,0.001866,1,0.559,1,0.025,0
0.0044845,-5.6629e-13,0.23771,0.00056,0,1.0413e-05,-1.5923e-14,5.9292e-21,0,0.033543,-1.9276e-10,0.017503,0.0019628,1,0.56,1,0.025,0
0.0044918,-5.2351e-13,0.23964,0.000561,0,1.0555e-05,-1.534e-14,5.9292e-21,0,0.036052,-1.854e-10,0.017521,0.00206,1,0.561,1,0.025,0
0.0044993,-3.9694e-13,0.24159,0.000562,0,1.0698e-05,-1.1126e-14,6.7763e-21,0,0.038573,-1.3554e-10,0.017538,0.0021576,1,0.562,1,0.025,0
0.0045069,-4.2194e-13,0.24356,0.000563,0,1.0842e-05,-1.0097e-14,4.2352e-21,0,0.041107,-1.2309e-10,0.017553,0.0022556,1,0.563,1,0.025,0
0.0045146,-5.0835e-13,0.24555,0.000564,0,1.0988e-05,-1.2458e-14,5.9292e-21,0,0.043654,-1.5033e-10,0.017568,0.0023541,1,0.564,1,0.025,0
0.0045225,-1.0808e-12,0.24755,0.000565,0,1.1136e-05,-2.3325e-14,6.7763e-21,0,0.046217,-2.7682e-10,0.017581,0.0024532,1,0.565,1,0.025,0
0.0045305,-6.6596e-13,0.24958,0.000566,0,1.1286e-05,-1.5447e-14,5.0822e-21,0,0.048795,-1.8428e-10,0.017593,0.0025528,1,0.566,1,0.025,0
0.0045388,-8.5004e-13,0.25162,0.000567,0,1.1437e-05,-1.8368e-14,5.9292e-21,0,0.051388,-2.1777e-10,0.017605,0.0026529,1,0.567,1,0.025,0
0.0045471,-6.734e-13,0.25368,0.000568,0,1.159e-05,-1.4811e-14,5.9292e-21,0,0.053998,-1.7617e-10,0.017615,0.0027536,1,0.568,1,0.025,0
0.0045557,-4.9517e-13,0.25575,0.000569,0,1.1745e-05,-9.1262e-15,5.9292e-21,0,0.056622,-1.1025e-10,0.017624,0.0028549,1,0.569,1,0.025,0
0.0045644,-5.2186e-13,0.25784,0.00057,0,1.1902e-05,-1.3932e-14,5.0822e-21,0,0.059261,-1.6491e-10,0.017633,0.0029567,1,0.57,1,0.025,0
0.0045733,-4.3884e-13,0.25994,0.000571,0,1.2061e-05,-9.6128e-15,4.2352e-21,0,0.061914,-1.1517e-10,0.017641,0.003059,1,0.571,1,0.025,0
0.0045824,-5.1105e-13,0.26205,0.000572,0,1.2221e-05,-9.2067e-15,5.0822e-21,0,0.06458,-1.1037e-10,0.017648,0.0031618,1,0.572,1,0.025,0
0.0045916,-2.2204e-13,0.26417,0.000573,0,1.2383e-05,-5.2115e-15,5.0822e-21,0,0.067257,-6.3476e-11,0.017654,0.003265,1,0.573,1,0.025,0
0.0046009,-3.9116e-13,0.26629,0.000574,0,1.2546e-05,-1.0422e-14,5.9292e-21,0,0.06994,-1.2354e-10,0.01766,0.0033684,1,0.574,1,0.025,0
0.0046104,-5.7217e-13,0.2684,0.000575,0,1.271e-05,-9.7933e-15,4.2352e-21,0,0.072624,-1.1621e-10,0.017666,0.0034718,1,0.575,1,0.025,0
0.0046199,-1.054e-12,0.27052,0.000576,0,1.2875e-05,-1.1852e-14,5.0822e-21,0,0.075307,-1.3888e-10,0.01767,0.0035752,1,0.576,1,0.025,0
0.0046296,-4.1157e-13,0.27264,0.000577,0,1.3041e-05,-8.6176e-15,5.9292e-21,0,0.077996,-1.0262e-10,0.017674,0.0036787,1,0.577,1,0.025,0
0.0046393,-2.8681e-13,0.27475,0.000578,0,1.3209e-05,-1.1815e-15,5.0822e-21,0,0.080685,-1.818e-11,0.017678,0.0037823,1,0.578,1,0.025,0
0.0046491,-5.3096e-13,0.27688,0.000579,0,1.3378e-05,-7.7674e-15,6.7763e-21,0,0.083377,-9.3078e-11,0.017681,0.0038859,1,0.579,1,0.025,0
0.0046591,-1.303e-13,0.27899,0.00058,0,1.3547e-05,-7.1615e-15,6.7763e-21,0,0.086072,-8.5046e-11,0.017684,0.0039896,1,0.58,1,0.025,0
0.0046691,-1.8663e-13,0.28112,0.000581,0,1.3718e-05,-7.2374e-15,5.0822e-21,0,0.088769,-8.5908e-11,0.017686,0.0040934,1,0.581,1,0.025,0
0.0046792,-1.4275e-13,0.28325,0.000582,0,1.3891e-05,1.7161e-15,5.0822e-21,0,0.091472,1.3608e-11,0.017687,0.0041974,1,0.582,1,0.025,0
0.0046893,-5.2103e-13,0.28538,0.000583,0,1.4065e-05,-7.5644e-15,5.0822e-21,0,0.094182,-8.8684e-11,0.017687,0.0043016,1,0.583,1,0.025,0
0.0046996,-2.0085e-13,0.28753,0.000584,0,1.424e-05,-2.3386e-15,4.2352e-21,0,0.096899,-3.122e-11,0.017687,0.0044061,1,0.584,1,0.025,0
0.00471,1.5386e-13,0.28968,0.000585,0,1.4417e-05,-1.4071e-14,5.0822e-21,0,0.099623,-1.6199e-10,0.017687,0.0045108,1,0.585,1,0.025,0
0.0047205,-4.0945e-13,0.29183,0.000586,0,1.4596e-05,-9.5075e-15,5.9292e-21,0,0.10235,-1.095e-10,0.017685,0.0046158,1,0.586,1,0.025,0
0.0047311,-6.9123e-13,0.294,0.000587,0,1.4776e-05,-8.6519e-15,5.9292e-21,0,0.10509,-1.0005e-10,0.017683,0.004721,1,0.587,1,0.025,0
0.0047418,-7.7951e-13,0.29617,0.000588,0,1.4958e-05,-3.9462e-15,5.9292e-21,0,0.10784,-4.9163e-11,0.017681,0.0048266,1,0.588,1,0.025,0
0.0047526,-5.3831e-13,0.29835,0.000589,0,1.5142e-05,-7.4856e-15,5.9292e-21,0,0.1106,-8.6469e-11,0.017678,0.0049325,1,0.589,1,0.025,0
0.0047635,-3.3645e-13,0.30054,0.00059,0,1.5327e-05,-3.3645e-15,5.9292e-21,0,0.11336,-4.2131e-11,0.017674,0.0050386,1,0.59,1,0.025,0
0.0047745,-2.8641e-13,0.30274,0.000591,0,1.5515e-05,-5.0133e-15,5.0822e-21,0,0.11614,-5.9179e-11,0.01767,0.0051451,1,0.591,1,0.025,0
0.0047856,-1.0248e-12,0.30494,0.000592,0,1.5704e-05,-4.6414e-15,5.0822e-21,0,0.11892,-5.512e-11,0.017665,0.005252,1,0.592,1,0.025,0
0.0047968,-6.0209e-13,0.30716,0.000593,0,1.5895e-05,-6.268e-15,5.0822e-21,0,0.12171,-7.2549e-11,0.017659,0.0053592,1,0.593,1,0.025,0
0.0048081,-4.6339e-13,0.30939,0.000594,0,1.6088e-05,-5.3262e-15,4.2352e-21,0,0.12452,-6.2422e-11,0.017653,0.0054667,1,0.594,1,0.025,0
0.0048195,-6.7308e-13,0.31163,0.000595,0,1.6283e-05,-8.247e-15,5.9292e-21,0,0.12733,-9.3869e-11,0.017647,0.0055746,1,0.595,1,0.025,0
0.0048311,-5.7865e-13,0.31388,0.000596,0,1.648e-05,-5.1414e-15,4.2352e-21,0,0.13015,-6.0148e-11,0.01764,0.0056829,1,0.596,1,0.025,0
0.0048427,-5.9765e-13,0.31613,0.000597,0,1.668e-05,8.7909e-16,5.9292e-21,0,0.13299,3.0448e-12,0.017633,0.0057916,1,0.597,1,0.025,0
0.0048544,-5.8184e-13,0.31841,0.000598,0,1.6881e-05,-2.2403e-15,4.2352e-21,0,0.13583,-2.9208e-11,0.017625,0.0059007,1,0.598,1,0.025,0
0.0048662,-6.5155e-13,0.32069,0.000599,0,1.7085e-05,-6.1716e-15,5.9292e-21,0,0.13869,-7.0478e-11,0.017616,0.0060102,1,0.599,1,0.025,0
0.0048781,-5.3714e-13,0.32298,0.0006,0,1.7291e-05,-3.5912e-15,5.9292e-21,0,0.14155,-4.2925e-11,0.017608,0.0061201,1,0.6,1,0.025,0
0.0048902,-6.1897e-13,0.32528,0.000601,0,1.7499e-05,-4.8042e-15,3.3881e-21,0,0.14443,-5.5606e-11,0.017599,0.0062304,1,0.601,1,0.025,0
0.0049023,-5.499e-13,0.3276,0.000602,0,1.7709e-05,-2.1281e-15,5.0822e-21,0,0.14732,-2.7781e-11,0.017589,0.0063412,1,0.602,1,0.025,0
0.0049145,-5.0346e-13,0.32993,0.000603,0,1.7922e-05,-1.4304e-15,5.9292e-21,0,0.15022,-2.0346e-11,0.017579,0.0064523,1,0.603,1,0.025,0
0.0049269,-5.8778e-13,0.33227,0.000604,0,1.8138e-05,-1.3812e-15,5.9292e-21,0,0.15314,-1.9967e-11,0.017569,0.006564,1,0.604,1,0.025,0
0.0049393,-4.1015e-13,0.33462,0.000605,0,1.8356e-05,3.6444e-16,5.9292e-21,0,0.15606,-1.2719e-12,0.017558,0.0066761,1,0.605,1,0.025,0
0.0049519,-6.7956e-13,0.33699,0.000606,0,1.8576e-05,-4.5774e-15,5.9292e-21,0,0.159,-5.2684e-11,0.017548,0.0067887,1,0.606,1,0.025,0
0.0049645,-6.2678e-13,0.33937,0.000607,0,1.88e-05,-4.4221e-15,4.2352e-21,0,0.16196,-5.0838e-11,0.017536,0.0069018,1,0.607,1,0.025,0
0.0049773,-5.2898e-13,0.34176,0.000608,0,1.9025e-05,-3.9656e-15,5.9292e-21,0,0.16492,-4.5977e-11,0.017525,0.0070154,1,0.608,1,0.025,0
0.0049902,-4.5991e-13,0.34417,0.000609,0,1.9254e-05,1.5555e-15,3.3881e-21,0,0.1679,9.5006e-12,0.017513,0.0071295,1,0.609,1,0.025,0
0.0050032,-6.0209e-13,0.34659,0.00061,0,1.9486e-05,-3.1963e-15,3.3881e-21,0,0.1709,-3.7904e-11,0.0175,0.0072442,1,0.61,1,0.025,0
0.0050163,-7.3012e-13,0.34902,0.000611,0,1.972e-05,1.0889e-15,5.9292e-21,0,0.1739,6.4099e-12,0.017488,0.0073594,1,0.611,1,0.025,0
0.0050295,-6.3303e-13,0.35147,0.000612,0,1.9958e-05,-3.5335e-15,5.0822e-21,0,0.17693,-4.0414e-11,0.017475,0.0074751,1,0.612,1,0.025,0
0.0050428,-3.7904e-13,0.35393,0.000613,0,2.0198e-05,-1.809e-15,5.0822e-21,0,0.17996,-2.3167e-11,0.017462,0.0075914,1,0.613,1,0.025,0
0.0050562,-4.9745e-13,0.3564,0.000614,0,2.0442e-05,-3.707e-15,4.2352e-21,0,0.18301,-4.2342e-11,0.017448,0.0077082,1,0.614,1,0.025,0
0.0050698,-5.1725e-13,0.35889,0.000615,0,2.0689e-05,-4.2959e-15,5.0822e-21,0,0.18608,-4.7673e-11,0.017435,0.0078255,1,0.615,1,0.025,0
0.0050834,-4.5907e-13,0.36139,0.000616,0,2.0938e-05,-3.4825e-15,5.0822e-21,0,0.18916,-3.9349e-11,0.017421,0.0079434,1,0.616,1,0.025,0
0.0050971,-5.1816e-13,0.3639,0.000617,0,2.1191e-05,-6.0463e-15,5.9292e-21,0,0.19225,-6.4117e-11,0.017407,0.0080618,1,0.617,1,0.025,0
0.005111,-3.8838e-13,0.36643,0.000618,0,2.1447e-05,-4.4248e-15,5.0822e-21,0,0.19536,-4.8083e-11,0.017393,0.0081807,1,0.618,1,0.025,0
0.0051249,-4.9564e-13,0.36897,0.000619,0,2.1707e-05,-6.505e-15,5.0822e-21,0,0.19848,-6.779e-11,0.017379,0.0083001,1,0.619,1,0.025,0
0.005139,-3.5672e-13,0.37152,0.00062,0,2.197e-05,-4.7029e-15,4.2352e-21,0,0.20161,-5.0274e-11,0.017365,0.0084201,1,0.62,1,0.025,0
0.0051531,-3.1006e-13,0.37409,0.000621,0,2.2236e-05,-4.4334e-15,5.9292e-21,0,0.20476,-4.7446e-11,0.017351,0.0085407,1,0.621,1,0.025,0
0.0051674,-2.987e-13,0.37667,0.000622,0,2.2506e-05,-4.0724e-15,4.2352e-21,0,0.20793,-4.3765e-11,0.017336,0.0086618,1,0.622,1,0.025,0
0.0051817,-6.4737e-14,0.37927,0.000623,0,2.278e-05,-2.9751e-15,4.2352e-21,0,0.21111,-3.2499e-11,0.017322,0.0087835,1,0.623,1,0.025,0
0.0051962,-4.1191e-13,0.38188,0.000624,0,2.3057e-05,-7.1935e-15,4.2352e-21,0,0.2143,-7.28e-11,0.017307,0.0089058,1,0.624,1,0.025,0
0.0037104,-1.2446e-13,0.38489,0.000625,0,1.4224e-05,-5.3572e-15,3.3881e-21,0,0.087635,-5.4301e-11,0.012069,0.0038338,1,0.625,1,0.025,0
0.0051038,-3.6734e-13,0.3872,0.000626,0,2.288e-05,-7.8645e-15,5.0822e-21,0,0.2102,-7.7999e-11,0.016851,0.0087305,1,0.626,1,0.025,0
0.003718,-1.3621e-13,0.39021,0.000627,0,1.4568e-05,-6.1399e-15,5.0822e-21,0,0.091985,-6.0946e-11,0.011953,0.0039966,1,0.627,1,0.025,0
0.0051243,-3.5761e-13,0.39253,0.000628,0,2.3401e-05,-8.1249e-15,5.9292e-21,0,0.21594,-7.9761e-11,0.01679,0.008949,1,0.628,1,0.025,0
0.0037302,-1.3419e-13,0.39558,0.000629,0,1.495e-05,-5.3401e-15,5.0822e-21,0,0.09677,-5.3085e-11,0.011852,0.0041767,1,0.629,1,0.025,0
0.0051454,-3.2442e-13,0.39792,0.00063,0,2.3938e-05,-7.7113e-15,5.0822e-21,0,0.22176,-7.4875e-11,0.01673,0.0091704,1,0.63,1,0.025,0
0.0037434,-1.6261e-13,0.401,0.000631,0,1.5346e-05,-7.203e-15,4.2352e-21,0,0.10165,-6.9282e-11,0.011753,0.0043607,1,0.631,1,0.025,0
0.0036916,-1.8622e-13,0.40376,0.000632,0,1.5178e-05,-8.062e-15,5.9292e-21,0,0.099001,-7.6497e-11,0.011497,0.0042489,1,0.632,1,0.025,0
0.0036934,-1.7795e-13,0.40651,0.000633,0,1.5351e-05,-8.7413e-15,4.2352e-21,0,0.10105,-8.2145e-11,0.01143,0.0043252,1,0.633,1,0.025,0
0.0036976,-1.933e-13,0.40927,0.000634,0,1.5541e-05,-8.859e-15,3.3881e-21,0,0.10332,-8.2832e-11,0.011372,0.0044102,1,0.634,1,0.025,0
0.0037022,-3.4103e-13,0.41203,0.000635,0,1.5736e-05,-1.1495e-14,3.3881e-21,0,0.10562,-1.0616e-10,0.011315,0.0044964,1,0.635,1,0.025,0
0.0037069,-1.2972e-13,0.41481,0.000636,0,1.5934e-05,-8.2892e-15,4.2352e-21,0,0.10794,-7.6731e-11,0.011258,0.0045835,1,0.636,1,0.025,0
0.0037118,-1.646e-13,0.4176,0.000637,0,1.6135e-05,-9.3961e-15,4.2352e-21,0,0.11029,-8.6143e-11,0.011202,0.0046715,1,0.637,1,0.025,0
0.003717,-3.9804e-13,0.4204,0.000638,0,1.6341e-05,-1.3368e-14,4.2352e-21,0,0.11265,-1.2084e-10,0.011147,0.0047602,1,0.638,1,0.025,0
0.0037223,-1.4365e-13,0.4232,0.000639,0,1.655e-05,-1.0681e-14,4.2352e-21,0,0.11503,-9.6265e-11,0.011092,0.0048497,1,0.639,1,0.025,0
0.0037278,-1.3365e-13,0.42601,0.00064,0,1.6762e-05,-9.7312e-15,3.3881e-21,0,0.11743,-8.7644e-11,0.011038,0.00494,1,0.64,1,0.025,0
0.0037335,4.861e-15,0.42883,0.000641,0,1.6978e-05,-1.1696e-14,3.3881e-21,0,0.11985,-1.0466e-10,0.010984,0.005031,1,0.641,1,0.025,0
0.0037393,-1.0762e-13,0.43166,0.000642,0,1.7198e-05,-9.7589e-15,4.2352e-21,0,0.12229,-8.6904e-11,0.010932,0.0051227,1,0.642,1,0.025,0
0.0037454,-1.0687e-13,0.43449,0.000643,0,1.7422e-05,-9.9068e-15,5.0822e-21,0,0.12475,-8.767e-11,0.01088,0.0052152,1,0.643,1,0.025,0
0.0037516,-1.2461e-13,0.43733,0.000644,0,1.765e-05,-9.7306e-15,5.0822e-21,0,0.12722,-8.5725e-11,0.010828,0.0053083,1,0.644,1,0.025,0
0.003758,-1.1906e-13,0.44017,0.000645,0,1.7881e-05,-9.8997e-15,5.0822e-21,0,0.12971,-8.66e-11,0.010778,0.0054022,1,0.645,1,0.025,0
0.0037646,-1.3709e-13,0.44302,0.000646,0,1.8116e-05,-1.0304e-14,4.2352e-21,0,0.13222,-8.949e-11,0.010728,0.0054966,1,0.646,1,0.025,0
0.0037713,-1.3233e-13,0.44587,0.000647,0,1.8354e-05,-1.0222e-14,4.2352e-21,0,0.13474,-8.8277e-11,0.010679,0.0055918,1,0.647,1,0.025,0
0.0037782,-1.3819e-13,0.44873,0.000648,0,1.8597e-05,-1.0347e-14,4.2352e-21,0,0.13728,-8.8783e-11,0.010631,0.0056875,1,0.648,1,0.025,0
0.0037852,-1.1127e-13,0.45159,0.000649,0,1.8843e-05,-1.0271e-14,5.0822e-21,0,0.13983,-8.7618e-11,0.010584,0.0057839,1,0.649,1,0.025,0
0.0037924,-9.5152e-14,0.45446,0.00065,0,1.9094e-05,-1.065e-14,4.2352e-21,0,0.1424,-9.0373e-11,0.010537,0.0058808,1,0.65,1,0.025,0
0.0037998,-1.1844e-13,0.45733,0.000651,0,1.9348e-05,-1.0015e-14,3.3881e-21,0,0.14498,-8.4473e-11,0.010492,0.0059784,1,0.651,1,0.025,0
0.0038073,-1.0712e-13,0.4602,0.000652,0,1.9606e-05,-1.0211e-14,4.2352e-21,0,0.14758,-8.5462e-11,0.010447,0.0060765,1,0.652,1,0.025,0
0.0038149,-1.2775e-13,0.46308,0.000653,0,1.9869e-05,-1.0553e-14,4.2352e-21,0,0.15019,-8.7812e-11,0.010403,0.0061752,1,0.653,1,0.025,0
0.0038227,-1.1409e-13,0.46595,0.000654,0,2.0135e-05,-1.0572e-14,4.2352e-21,0,0.15282,-8.735e-11,0.01036,0.0062744,1,0.654,1,0.025,0
0.0038307,-9.4185e-14,0.46883,0.000655,0,2.0405e-05,-1.0401e-14,5.9292e-21,0,0.15545,-8.5434e-11,0.010318,0.0063742,1,0.655,1,0.025,0
0.0038388,-7.9046e-14,0.47172,0.000656,0,2.068e-05,-1.0065e-14,5.0822e-21,0,0.1581,-8.2236e-11,0.010276,0.0064745,1,0.656,1,0.025,0
0.003847,-7.8318e-14,0.4746,0.000657,0,2.0959e-05,-9.9631e-15,5.0822e-21,0,0.16076,-8.0892e-11,0.010236,0.0065753,1,0.657,1,0.025,0
0.0038553,-9.0797e-14,0.47749,0.000658,0,2.1242e-05,-1.0197e-14,4.2352e-21,0,0.16344,-8.2248e-11,0.010196,0.0066766,1,0.658,1,0.025,0
0.0038638,-7.2847e-14,0.48038,0.000659,0,2.1529e-05,-9.9424e-15,5.0822e-21,0,0.16612,-7.9662e-11,0.010158,0.0067784,1,0.659,1,0.025,0
0.0038724,-7.7511e-14,0.48327,0.00066,0,2.1821e-05,-9.9507e-15,4.2352e-21,0,0.16882,-7.9243e-11,0.01012,0.0068807,1,0.66,1,0.025,0
0.0038811,-7.7877e-14,0.48616,0.000661,0,2.2116e-05,-9.7438e-15,5.0822e-21,0,0.17153,-7.6998e-11,0.010083,0.0069835,1,0.661,1,0.025,0
0.00389,-7.1813e-14,0.48906,0.000662,0,2.2417e-05,-9.7436e-15,5.0822e-21,0,0.17425,-7.6633e-11,0.010048,0.0070867,1,0.662,1,0.025,0
0.003899,-7.6098e-14,0.49195,0.000663,0,2.2722e-05,-9.6251e-15,5.0822e-21,0,0.17699,-7.5262e-11,0.010013,0.0071905,1,0.663,1,0.025,0
0.003908,-8.1451e-14,0.49485,0.000664,0,2.3031e-05,-9.9684e-15,4.2352e-21,0,0.17973,-7.7488e-11,0.0099792,0.0072946,1,0.664,1,0.025,0
0.0039172,-6.3021e-14,0.49774,0.000665,0,2.3345e-05,-9.8636e-15,5.9292e-21,0,0.18248,-7.6114e-11,0.0099463,0.0073992,1,0.665,1,0.025,0
0.0039265,-6.5442e-14,0.50064,0.000666,0,2.3664e-05,-9.7818e-15,4.2352e-21,0,0.18525,-7.4973e-11,0.0099145,0.0075043,1,0.666,1,0.025,0
0.003936,-3.0961e-14,0.50354,0.000667,0,2.3987e-05,-9.3822e-15,4.2352e-21,0,0.18802,-7.1247e-11,0.0098837,0.0076098,1,0.667,1,0.025,0
0.0039455,-5.2969e-14,0.50643,0.000668,0,2.4315e-05,-9.7762e-15,4.2352e-21,0,0.1908,-7.4158e-11,0.0098539,0.0077157,1,0.668,1,0.025,0
0.0039551,-6.8491e-14,0.50933,0.000669,0,2.4648e-05,-9.5746e-15,4.2352e-21,0,0.1936,-7.2014e-11,0.0098251,0.007822,1,0.669,1,0.025,0
0.0039648,-4.9722e-14,0.51223,0.00067,0,2.4986e-05,-9.8081e-15,4.2352e-21,0,0.1964,-7.3206e-11,0.0097974,0.0079287,1,0.67,1,0.025,0
0.0039746,-6.4672e-14,0.51513,0.000671,0,2.5329e-05,-9.6416e-15,3.3881e-21,0,0.19921,-7.1542e-11,0.0097707,0.0080358,1,0.671,1,0.025,0
0.0039845,-1.1153e-12,0.51803,0.000672,0,2.5677e-05,-1.0033e-14,3.3881e-21,0,0.20203,-7.8803e-11,0.009745,0.0081432,1,0.672,1,0.025,0
0.0039945,-1.9135e-13,0.52093,0.000673,0,2.603e-05,-9.9183e-15,5.0822e-21,0,0.20486,-7.2928e-11,0.0097204,0.0082511,1,0.673,1,0.025,0
0.0040046,-6.622e-14,0.52382,0.000674,0,2.6388e-05,-9.7875e-15,6.7763e-21,0,0.2077,-7.1059e-11,0.0096968,0.0083593,1,0.674,1,0.025,0
0.0040148,-2.6485e-14,0.52672,0.000675,0,2.6752e-05,-9.3731e-15,3.3881e-21,0,0.21055,-6.7396e-11,0.0096743,0.0084679,1,0.675,1,0.025,0
0.0040251,-3.9592e-14,0.52962,0.000676,0,2.712e-05,-9.5861e-15,5.9292e-21,0,0.2134,-6.8562e-11,0.0096529,0.0085768,1,0.676,1,0.025,0
0.0040354,-3.5787e-14,0.53251,0.000677,0,2.7494e-05,-9.5684e-15,5.0822e-21,0,0.21626,-6.796e-11,0.0096326,0.0086861,1,0.677,1,0.025,0
0.0040458,-3.6762e-14,0.53541,0.000678,0,2.7874e-05,-9.5043e-15,3.3881e-21,0,0.21913,-6.7052e-11,0.0096133,0.0087957,1,0.678,1,0.025,0
0.0040563,-4.4832e-14,0.5383,0.000679,0,2.8259e-05,-9.3211e-15,4.2352e-21,0,0.22201,-6.5348e-11,0.0095952,0.0089056,1,0.679,1,0.025,0
0.0040669,-5.9112e-14,0.54119,0.00068,0,2.865e-05,-9.1954e-15,3.3881e-21,0,0.22489,-6.3959e-11,0.0095781,0.0090159,1,0.68,1,0.025,0
0.0040775,-2.3331e-14,0.54408,0.000681,0,2.9046e-05,-9.4146e-15,5.0822e-21,0,0.22778,-6.4909e-11,0.0095622,0.0091264,1,0.681,1,0.025,0
0.0040882,-3.3011e-13,0.54697,0.000682,0,2.9448e-05,-5.361e-15,4.2352e-21,0,0.23068,-3.5573e-11,0.0095474,0.0092373,1,0.682,1,0.025,0
0.004099,-7.5104e-14,0.54986,0.000683,0,2.9856e-05,-8.8704e-15,3.3881e-21,0,0.23359,-5.9901e-11,0.0095337,0.0093484,1,0.683,1,0.025,0
0.0041098,1.9066e-14,0.55275,0.000684,0,3.027e-05,-9.1405e-15,5.0822e-21,0,0.2365,-6.1128e-11,0.0095211,0.0094599,1,0.684,1,0.025,0
0.0041207,3.0042e-15,0.55563,0.000685,0,3.0689e-05,-9.5921e-15,4.2352e-21,0,0.23941,-6.3923e-11,0.0095096,0.0095716,1,0.685,1,0.025,0
0.0041316,1.9528e-15,0.55851,0.000686,0,3.1115e-05,-1.0295e-14,5.0822e-21,0,0.24234,-6.8727e-11,0.0094993,0.0096835,1,0.686,1,0.025,0
0.0041426,-6.6116e-15,0.56139,0.000687,0,3.1547e-05,-9.764e-15,5.0822e-21,0,0.24526,-6.4371e-11,0.0094902,0.0097958,1,0.687,1,0.025,0
0.0041536,8.4214e-15,0.56427,0.000688,0,3.1985e-05,-9.4362e-15,5.0822e-21,0,0.2482,-6.1444e-11,0.0094821,0.0099083,1,0.688,1,0.025,0
0.0041647,2.9059e-13,0.56714,0.000689,0,3.243e-05,-9.0745e-15,5.0822e-21,0,0.25114,-5.6838e-11,0.0094753,0.010021,1,0.689,1,0.025,0
0.0041759,1.2036e-13,0.57001,0.00069,0,3.2881e-05,-9.3865e-15,5.9292e-21,0,0.25408,-5.8766e-11,0.0094695,0.010134,1,0.69,1,0.025,0
0.004187,6.5409e-14,0.57288,0.000691,0,3.3339e-05,-9.6188e-15,6.7763e-21,0,0.25703,-6.0297e-11,0.009465,0.010247,1,0.691,1,0.025,0
0.0041983,7.5617e-14,0.57575,0.000692,0,3.3803e-05,-9.91e-15,4.2352e-21,0,0.25998,-6.1927e-11,0.0094616,0.010361,1,0.692,1,0.025,0
0.0042095,6.3185e-14,0.57861,0.000693,0,3.4274e-05,-9.8877e-15,5.9292e-21,0,0.26294,-6.1361e-11,0.0094593,0.010474,1,0.693,1,0.025,0
0.0042208,6.505e-14,0.58147,0.000694,0,3.4751e-05,-9.7068e-15,5.0822e-21,0,0.2659,-5.9752e-11,0.0094583,0.010588,1,0.694,1,0.025,0
0.0042321,1.4323e-13,0.58433,0.000695,0,3.5236e-05,-1.0213e-14,4.2352e-21,0,0.26886,-6.2297e-11,0.0094584,0.010702,1,0.695,1,0.025,0
0.0042435,7.8126e-14,0.58718,0.000696,0,3.5727e-05,-1.018e-14,5.9292e-21,0,0.27183,-6.1715e-11,0.0094597,0.010816,1,0.696,1,0.025,0
0.0042548,7.6321e-14,0.59003,0.000697,0,3.6226e-05,-9.9943e-15,4.2352e-21,0,0.2748,-5.987e-11,0.0094621,0.01093,1,0.697,1,0.025,0
0.0042662,7.6674e-14,0.59287,0.000698,0,3.6732e-05,-1.0004e-14,5.0822e-21,0,0.27778,-5.9454e-11,0.0094658,0.011045,1,0.698,1,0.025,0
0.0042776,8.0182e-14,0.59572,0.000699,0,3.7245e-05,-9.7636e-15,6.7763e-21,0,0.28075,-5.7588e-11,0.0094706,0.01116,1,0.699,1,0.025,0
0.0042891,9.9388e-14,0.59855,0.0007,0,3.7765e-05,-8.7728e-15,5.0822e-21,0,0.28373,-5.0324e-11,0.0094766,0.011275,1,0.7,1,0.025,0
0.0033633,8.7055e-14,0.60177,0.000701,0,2.8555e-05,-9.6861e-15,5.0822e-21,0,0.1967,-5.5867e-11,0.0058618,0.0077888,1,0.701,1,0.025,0
0.0041275,7.5774e-14,0.60431,0.000702,0,3.6888e-05,-9.9648e-15,5.0822e-21,0,0.27187,-5.7226e-11,0.0087712,0.010791,1,0.702,1,0.025,0
0.0033606,7.3087e-14,0.60746,0.000703,0,2.919e-05,-9.9809e-15,5.0822e-21,0,0.1999,-5.6777e-11,0.0057665,0.0079082,1,0.703,1,0.025,0
0.0041375,7.9848e-14,0.60997,0.000704,0,3.7812e-05,-1.0134e-14,5.9292e-21,0,0.27656,-5.7145e-11,0.008739,0.01097,1,0.704,1,0.025,0
0.0033804,2.331e-13,0.61311,0.000705,0,3.0087e-05,-1.4356e-14,5.0822e-21,0,0.20529,-8.1846e-11,0.0057659,0.0081155,1,0.705,1,0.025,0
0.0041519,1.175e-13,0.61561,0.000706,0,3.8812e-05,-1.0284e-14,5.9292e-21,0,0.28169,-5.6376e-11,0.00873,0.011167,1,0.706,1,0.025,0
0.0034012,8.8216e-14,0.61874,0.000707,0,3.1023e-05,-1.0029e-14,5.0822e-21,0,0.21079,-5.486e-11,0.0057747,0.0083275,1,0.707,1,0.025,0
0.0041665,9.0602e-14,0.62123,0.000708,0,3.9843e-05,-1.0437e-14,4.2352e-21,0,0.28683,-5.672e-11,0.0087267,0.011365,1,0.708,1,0.025,0
0.0034226,9.7789e-14,0.62435,0.000709,0,3.1992e-05,-1.0635e-14,2.5411e-21,0,0.21635,-5.7283e-11,0.0057903,0.0085416,1,0.709,1,0.025,0
0.0033168,1.1519e-13,0.6272,0.00071,0,3.1168e-05,-1.165e-14,4.2352e-21,0,0.20771,-6.2966e-11,0.0053388,0.0081922,1,0.71,1,0.025,0
0.0033068,1.1052e-13,0.63001,0.000711,0,3.1421e-05,-1.0489e-14,4.2352e-21,0,0.20843,-5.5445e-11,0.0052657,0.008217,1,0.711,1,0.025,0
0.0033116,1.1415e-13,0.6328,0.000712,0,3.185e-05,-1.0794e-14,6.7763e-21,0,0.21062,-5.6268e-11,0.0052538,0.0083006,1,0.712,1,0.025,0
0.0033188,1.1291e-13,0.63559,0.000713,0,3.2314e-05,-1.0577e-14,5.0822e-21,0,0.21305,-5.463e-11,0.0052534,0.0083941,1,0.713,1,0.025,0
0.0033266,1.1166e-13,0.63837,0.000714,0,3.279e-05,-1.0334e-14,5.9292e-21,0,0.21553,-5.2975e-11,0.0052564,0.0084896,1,0.714,1,0.025,0
0.0033345,-1.0027e-14,0.64114,0.000715,0,3.3276e-05,-8.7367e-15,5.9292e-21,0,0.21802,-4.3504e-11,0.0052615,0.0085858,1,0.715,1,0.025,0
0.0033425,7.5605e-14,0.64391,0.000716,0,3.377e-05,-1.0134e-14,5.0822e-21,0,0.22053,-5.0739e-11,0.0052683,0.0086824,1,0.716,1,0.025,0
0.0033506,1.0058e-13,0.64667,0.000717,0,3.4273e-05,-1.0288e-14,5.0822e-21,0,0.22304,-5.1123e-11,0.0052768,0.0087794,1,0.717,1,0.025,0
0.0033587,1.9306e-13,0.64942,0.000718,0,3.4784e-05,-1.1815e-14,4.2352e-21,0,0.22557,-5.8849e-11,0.0052869,0.0088767,1,0.718,1,0.025,0
0.003367,1.3224e-13,0.65217,0.000719,0,3.5304e-05,-1.1043e-14,5.0822e-21,0,0.22809,-5.3976e-11,0.0052986,0.0089744,1,0.719,1,0.025,0
0.0033753,1.0031e-13,0.65491,0.00072,0,3.5832e-05,-1.0085e-14,5.0822e-21,0,0.23063,-4.8179e-11,0.0053119,0.0090723,1,0.72,1,0.025,0
0.0033837,1.1541e-13,0.65764,0.000721,0,3.637e-05,-9.1688e-15,5.9292e-21,0,0.23317,-4.1917e-11,0.0053268,0.0091706,1,0.721,1,0.025,0
0.0033921,8.0256e-14,0.66037,0.000722,0,3.6916e-05,-9.9549e-15,5.9292e-21,0,0.23571,-4.6296e-11,0.0053433,0.0092691,1,0.722,1,0.025,0
0.0034006,9.6427e-14,0.66309,0.000723,0,3.7471e-05,-1.0688e-14,5.0822e-21,0,0.23826,-5.0035e-11,0.0053614,0.0093678,1,0.723,1,0.025,0
0.0034091,1.0195e-13,0.6658,0.000724,0,3.8035e-05,-1.0695e-14,5.0822e-21,0,0.24082,-4.9656e-11,0.005381,0.0094668,1,0.724,1,0.025,0
0.0034177,9.8394e-14,0.6685,0.000725,0,3.8609e-05,-1.0927e-14,5.0822e-21,0,0.24338,-5.0471e-11,0.0054021,0.0095661,1,0.725,1,0.025,0
0.0034264,9.9633e-14,0.6712,0.000726,0,3.9192e-05,-1.0758e-14,5.0822e-21,0,0.24594,-4.8995e-11,0.0054247,0.0096655,1,0.726,1,0.025,0
0.003435,9.892e-14,0.67389,0.000727,0,3.9785e-05,-1.0724e-14,5.9292e-21,0,0.24851,-4.8323e-11,0.0054485,0.0097651,1,0.727,1,0.025,0
0.0034437,9.6337e-14,0.67657,0.000728,0,4.0388e-05,-1.0203e-14,5.9292e-21,0,0.25108,-4.5644e-11,0.005474,0.0098651,1,0.728,1,0.025,0
0.0034525,8.7165e-14,0.67924,0.000729,0,4.1001e-05,-1.076e-14,5.0822e-21,0,0.25366,-4.8239e-11,0.0055009,0.0099652,1,0.729,1,0.025,0
0.0034613,7.5091e-14,0.6819,0.00073,0,4.1623e-05,-1.0761e-14,5.9292e-21,0,0.25624,-4.785e-11,0.0055293,0.010065,1,0.73,1,0.025,0
0.0034702,7.8175e-14,0.68456,0.000731,0,4.2256e-05,-1.0433e-14,5.9292e-21,0,0.25882,-4.5726e-11,0.0055591,0.010166,1,0.731,1,0.025,0
0.003479,1.2973e-13,0.6872,0.000732,0,4.2898e-05,-1.1829e-14,5.9292e-21,0,0.2614,-5.2356e-11,0.0055904,0.010266,1,0.732,1,0.025,0
0.0034879,9.1907e-14,0.68984,0.000733,0,4.3551e-05,-1.0905e-14,4.2352e-21,0,0.26398,-4.718e-11,0.005623,0.010367,1,0.733,1,0.025,0
0.0034968,7.9751e-14,0.69246,0.000734,0,4.4214e-05,-1.0706e-14,5.0822e-21,0,0.26656,-4.561e-11,0.0056571,0.010467,1,0.734,1,0.025,0
0.0035057,7.8446e-14,0.69508,0.000735,0,4.4887e-05,-9.7122e-15,5.0822e-21,0,0.26914,-4.0757e-11,0.0056926,0.010568,1,0.735,1,0.025,0
0.0035146,4.6237e-14,0.69768,0.000736,0,4.5571e-05,-9.3264e-15,5.0822e-21,0,0.27172,-3.933e-11,0.0057294,0.010669,1,0.736,1,0.025,0
0.0035236,4.3163e-14,0.70028,0.000737,0,4.6266e-05,-9.1169e-15,5.9292e-21,0,0.27431,-3.8137e-11,0.0057676,0.010769,1,0.737,1,0.025,0
0.0035325,4.2004e-14,0.70286,0.000738,0,4.6972e-05,-9.1464e-15,6.7763e-21,0,0.27689,-3.7957e-11,0.0058072,0.01087,1,0.738,1,0.025,0
0.0035415,4.6092e-14,0.70544,0.000739,0,4.7689e-05,-9.2097e-15,5.0822e-21,0,0.27947,-3.7856e-11,0.0058481,0.010971,1,0.739,1,0.025,0
0.0035504,4.5056e-14,0.708,0.00074,0,4.8418e-05,-9.3006e-15,4.2352e-21,0,0.28205,-3.7806e-11,0.0058903,0.011072,1,0.74,1,0.025,0
0.0035594,3.6809e-14,0.71056,0.000741,0,4.9158e-05,-8.8909e-15,5.0822e-21,0,0.28462,-3.5314e-11,0.0059338,0.011173,1,0.741,1,0.025,0
0.0035684,4.3973e-14,0.7131,0.000742,0,4.9909e-05,-9.3591e-15,5.0822e-21,0,0.2872,-3.7007e-11,0.0059786,0.011273,1,0.742,1,0.025,0
0.0035773,5.1155e-14,0.71564,0.000743,0,5.0673e-05,-9.312e-15,4.2352e-21,0,0.28977,-3.6475e-11,0.0060246,0.011374,1,0.743,1,0.025,0
0.0035863,4.9867e-14,0.71816,0.000744,0,5.1448e-05,-9.1285e-15,5.9292e-21,0,0.29235,-3.5449e-11,0.006072,0.011475,1,0.744,1,0.025,0
0.0035952,4.6271e-14,0.72068,0.000745,0,5.2236e-05,-8.8863e-15,5.0822e-21,0,0.29492,-3.428e-11,0.0061206,0.011575,1,0.745,1,0.025,0
0.0036041,4.3095e-14,0.72318,0.000746,0,5.3036e-05,-8.932e-15,3.3881e-21,0,0.29748,-3.415e-11,0.0061704,0.011676,1,0.746,1,0.025,0
0.0036131,4.0621e-14,0.72567,0.000747,0,5.3848e-05,-8.7913e-15,5.0822e-21,0,0.30005,-3.332e-11,0.0062214,0.011777,1,0.747,1,0.025,0
0.003622,3.8199e-14,0.72815,0.000748,0,5.4673e-05,-8.6126e-15,4.2352e-21,0,0.30261,-3.2371e-11,0.0062737,0.011877,1,0.748,1,0.025,0
0.0036308,3.3485e-14,0.73062,0.000749,0,5.5512e-05,-9.0096e-15,4.2352e-21,0,0.30517,-3.3711e-11,0.0063271,0.011978,1,0.749,1,0.025,0
0.0036397,2.7981e-14,0.73308,0.00075,0,5.6363e-05,-8.9397e-15,5.0822e-21,0,0.30772,-3.3227e-11,0.0063818,0.012078,1,0.75,1,0.025,0
0.0036485,4.1665e-14,0.73553,0.000751,0,5.7228e-05,-9.7883e-15,4.2352e-21,0,0.31027,-3.5522e-11,0.0064376,0.012178,1,0.751,1,0.025,0
0.0036574,5.426e-14,0.73797,0.000752,0,5.8107e-05,-1.0907e-14,4.2352e-21,0,0.31282,-3.8675e-11,0.0064945,0.012278,1,0.752,1,0.025,0
0.0036661,6.9458e-14,0.7404,0.000753,0,5.8999e-05,-1.1199e-14,3.3881e-21,0,0.31536,-3.8898e-11,0.0065526,0.012378,1,0.753,1,0.025,0
0.0036749,7.385e-14,0.74281,0.000754,0,5.9906e-05,-1.1414e-14,5.0822e-21,0,0.3179,-3.9084e-11,0.0066118,0.012478,1,0.754,1,0.025,0
0.003137,7.7153e-14,0.74553,0.000755,0,5.1047e-05,-1.1288e-14,5.0822e-21,0,0.26245,-3.8104e-11,0.0043428,0.010259,1,0.755,1,0.025,0
0.003508,7.3226e-14,0.74772,0.000756,0,5.8414e-05,-1.1587e-14,2.5411e-21,0,0.30328,-3.8736e-11,0.0059377,0.01189,1,0.756,1,0.025,0
0.0036373,7.5097e-14,0.75004,0.000757,0,6.1538e-05,-1.1527e-14,5.9292e-21,0,0.31864,-3.8045e-11,0.0065163,0.012503,1,0.757,1,0.025,0
0.0031524,7.2321e-14,0.75269,0.000758,0,5.3361e-05,-1.1486e-14,5.0822e-21,0,0.26853,-3.753e-11,0.004468,0.010497,1,0.758,1,0.025,0
0.003522,6.9616e-14,0.75485,0.000759,0,6.0971e-05,-1.1523e-14,5.9292e-21,0,0.30944,-3.7261e-11,0.0060712,0.012132,1,0.759,1,0.025,0
0.0031357,6.7562e-14,0.75743,0.00076,0,5.4453e-05,-1.1266e-14,5.9292e-21,0,0.26967,-3.604e-11,0.0044406,0.01054,1,0.76,1,0.025,0
0.0035211,-1.326e-15,0.75955,0.000761,0,6.2548e-05,-9.5004e-15,5.0822e-21,0,0.31243,-2.894e-11,0.0061214,0.012249,1,0.761,1,0.025,0
0.0031508,4.2395e-14,0.7621,0.000762,0,5.6196e-05,-1.0664e-14,3.3881e-21,0,0.27422,-3.2795e-11,0.0045572,0.01072,1,0.762,1,0.025,0
0.0035312,5.2559e-14,0.76419,0.000763,0,6.4395e-05,-1.0953e-14,4.2352e-21,0,0.31662,-3.3547e-11,0.0062262,0.012414,1,0.763,1,0.025,0
0.0031691,5.758e-14,0.76672,0.000764,0,5.8065e-05,-1.0957e-14,4.2352e-21,0,0.27913,-3.3329e-11,0.004694,0.010913,1,0.764,1,0.025,0
0.0035425,5.6154e-14,0.76879,0.000765,0,6.6326e-05,-1.1281e-14,5.0822e-21,0,0.32092,-3.4043e-11,0.0063414,0.012584,1,0.765,1,0.025,0
0.0031878,6.0395e-14,0.77129,0.000766,0,6.0005e-05,-1.1044e-14,5.0822e-21,0,0.28406,-3.2888e-11,0.0048377,0.011109,1,0.766,1,0.025,0
0.0035539,5.8323e-14,0.77334,0.000767,0,6.8324e-05,-1.0729e-14,4.2352e-21,0,0.32522,-3.1682e-11,0.006462,0.012754,1,0.767,1,0.025,0
0.0032064,5.2966e-14,0.77581,0.000768,0,6.2012e-05,-1.0575e-14,4.2352e-21,0,0.28899,-3.0972e-11,0.0049863,0.011304,1,0.768,1,0.025,0
0.0030991,4.8147e-14,0.77813,0.000769,0,6.0575e-05,-1.0599e-14,5.0822e-21,0,0.27869,-3.0779e-11,0.0045481,0.010891,1,0.769,1,0.025,0
0.0035237,4.7879e-14,0.7801,0.00077,0,7.0431e-05,-1.0395e-14,5.0822e-21,0,0.32643,-2.9864e-11,0.0064395,0.012799,1,0.77,1,0.025,0
0.0032178,3.9067e-14,0.78252,0.000771,0,6.4793e-05,-1.0281e-14,5.0822e-21,0,0.29453,-2.9429e-11,0.0051424,0.011523,1,0.771,1,0.025,0
0.0031196,4.4847e-14,0.78479,0.000772,0,6.3518e-05,-1.0242e-14,5.9292e-21,0,0.28517,-2.879e-11,0.0047464,0.011148,1,0.772,1,0.025,0
0.0030906,4.2083e-14,0.78701,0.000773,0,6.3732e-05,-1.0717e-14,5.9292e-21,0,0.28335,-2.9814e-11,0.0046535,0.011074,1,0.773,1,0.025,0
0.0030849,4.4426e-14,0.78921,0.000774,0,6.4471e-05,-1.114e-14,3.3881e-21,0,0.2841,-3.0512e-11,0.0046655,0.011103,1,0.774,1,0.025,0
0.0030873,5.1711e-14,0.79138,0.000775,0,6.5407e-05,-1.0488e-14,4.2352e-21,0,0.28574,-2.8243e-11,0.0047154,0.011169,1,0.775,1,0.025,0
0.0030925,5.0874e-14,0.79354,0.000776,0,6.6424e-05,-1.066e-14,4.2352e-21,0,0.2877,-2.8336e-11,0.0047796,0.011247,1,0.776,1,0.025,0
0.0030988,4.7536e-14,0.79569,0.000777,0,6.7483e-05,-1.0567e-14,4.2352e-21,0,0.28978,-2.7802e-11,0.00485,0.011329,1,0.777,1,0.025,0
0.0031054,4.5199e-14,0.79782,0.000778,0,6.8569e-05,-1.0429e-14,5.0822e-21,0,0.29189,-2.714e-11,0.0049234,0.011413,1,0.778,1,0.025,0
0.0031122,3.9318e-14,0.79994,0.000779,0,6.9676e-05,-1.0309e-14,5.0822e-21,0,0.29401,-2.6654e-11,0.0049987,0.011498,1,0.779,1,0.025,0
0.003119,3.4159e-14,0.80205,0.00078,0,7.0804e-05,-1.1133e-14,4.2352e-21,0,0.29614,-2.8533e-11,0.0050754,0.011582,1,0.78,1,0.025,0
0.0031258,3.859e-14,0.80414,0.000781,0,7.1952e-05,-1.1551e-14,3.3881e-21,0,0.29826,-2.9085e-11,0.0051531,0.011667,1,0.781,1,0.025,0
0.0031326,4.4518e-14,0.80623,0.000782,0,7.3119e-05,-1.1429e-14,5.0822e-21,0,0.30038,-2.8283e-11,0.005232,0.011752,1,0.782,1,0.025,0
0.0031393,4.5287e-14,0.80829,0.000783,0,7.4306e-05,-1.1167e-14,4.2352e-21,0,0.3025,-2.7251e-11,0.0053117,0.011836,1,0.783,1,0.025,0
0.0031461,4.7046e-14,0.81035,0.000784,0,7.5513e-05,-1.1429e-14,5.0822e-21,0,0.3046,-2.7527e-11,0.0053924,0.01192,1,0.784,1,0.025,0
0.0031528,4.2037e-14,0.81239,0.000785,0,7.674e-05,-1.0833e-14,4.2352e-21,0,0.3067,-2.5003e-11,0.005474,0.012004,1,0.785,1,0.025,0
0.0031595,4.5891e-14,0.81442,0.000786,0,7.7987e-05,-1.1076e-14,4.2352e-21,0,0.3088,-2.5475e-11,0.0055563,0.012087,1,0.786,1,0.025,0
0.0031661,4.4635e-14,0.81643,0.000787,0,7.9255e-05,-1.1474e-14,4.2352e-21,0,0.31088,-2.6293e-11,0.0056395,0.012171,1,0.787,1,0.025,0
0.0031727,4.2037e-14,0.81843,0.000788,0,8.0545e-05,-1.2411e-14,5.0822e-21,0,0.31296,-2.8246e-11,0.0057235,0.012254,1,0.788,1,0.025,0
0.0031793,5.0145e-14,0.82042,0.000789,0,8.1855e-05,-1.2841e-14,5.0822e-21,0,0.31502,-2.8662e-11,0.0058082,0.012337,1,0.789,1,0.025,0
0.0031858,5.3363e-14,0.82239,0.00079,0,8.3187e-05,-1.2976e-14,5.0822e-21,0,0.31708,-2.8522e-11,0.0058936,0.012419,1,0.79,1,0.025,0
0.0031923,5.3343e-14,0.82435,0.000791,0,8.4541e-05,-1.3398e-14,5.0822e-21,0,0.31913,-2.9065e-11,0.0059797,0.012501,1,0.791,1,0.025,0
0.0031987,5.4631e-14,0.8263,0.000792,0,8.5918e-05,-1.4154e-14,5.9292e-21,0,0.32117,-3.0279e-11,0.0060665,0.012583,1,0.792,1,0.025,0
0.0032051,5.9025e-14,0.82823,0.000793,0,8.7317e-05,-1.4269e-14,4.2352e-21,0,0.3232,-2.9911e-11,0.0061539,0.012664,1,0.793,1,0.025,0
0.0032114,6.2421e-14,0.83015,0.000794,0,8.8739e-05,-1.4004e-14,4.2352e-21,0,0.32522,-2.8865e-11,0.0062419,0.012745,1,0.794,1,0.025,0
0.0032177,5.7893e-14,0.83206,0.000795,0,9.0184e-05,-1.4031e-14,4.2352e-21,0,0.32723,-2.8686e-11,0.0063305,0.012826,1,0.795,1,0.025,0
0.003224,5.9303e-14,0.83395,0.000796,0,9.1653e-05,-1.4545e-14,4.2352e-21,0,0.32923,-2.9302e-11,0.0064197,0.012906,1,0.796,1,0.025,0
0.0032302,6.2022e-14,0.83583,0.000797,0,9.3146e-05,-1.4566e-14,4.2352e-21,0,0.33122,-2.8862e-11,0.0065094,0.012986,1,0.797,1,0.025,0
0.0032363,5.867e-14,0.83769,0.000798,0,9.4664e-05,-1.4054e-14,5.9292e-21,0,0.3332,-2.7533e-11,0.0065995,0.013066,1,0.798,1,0.025,0
0.0032424,5.5338e-14,0.83954,0.000799,0,9.6206e-05,-1.3838e-14,3.3881e-21,0,0.33516,-2.6828e-11,0.0066902,0.013145,1,0.799,1,0.025,0
0.0032484,4.2846e-14,0.84138,0.0008,0,9.7773e-05,-1.458e-14,5.0822e-21,0,0.33711,-2.8284e-11,0.0067813,0.013223,1,0.8,1,0.025,0
0.0032544,5.4096e-14,0.8432,0.000801,0,9.9365e-05,-1.5014e-14,4.2352e-21,0,0.33906,-2.8385e-11,0.0068729,0.013302,1,0.801,1,0.025,0
0.0032603,5.5585e-14,0.84501,0.000802,0,0.00010098,-1.5682e-14,5.0822e-21,0,0.34098,-2.9203e-11,0.0069648,0.013379,1,0.802,1,0.025,0
0.0032661,5.7563e-14,0.8468,0.000803,0,0.00010263,-1.6442e-14,4.2352e-21,0,0.3429,-3.0134e-11,0.0070572,0.013457,1,0.803,1,0.025,0
0.0032719,6.3395e-14,0.84858,0.000804,0,0.0001043,-1.6955e-14,4.2352e-21,0,0.3448,-3.0463e-11,0.0071498,0.013533,1,0.804,1,0.025,0
0.0032777,6.4804e-14,0.85035,0.000805,0,0.000106,-1.6664e-14,5.9292e-21,0,0.34669,-2.947e-11,0.0072428,0.01361,1,0.805,1,0.025,0
0.0032833,6.4243e-14,0.8521,0.000806,0,0.00010772,-1.7017e-14,4.2352e-21,0,0.34857,-2.9686e-11,0.0073362,0.013685,1,0.806,1,0.025,0
0.003289,6.2451e-14,0.85384,0.000807,0,0.00010948,-1.7402e-14,5.9292e-21,0,0.35043,-2.9978e-11,0.0074298,0.01376,1,0.807,1,0.025,0
0.0030109,6.4835e-14,0.85578,0.000808,0,0.00010143,-1.7672e-14,5.9292e-21,0,0.31896,-2.9932e-11,0.0061907,0.012503,1,0.808,1,0.025,0
0.0031516,6.7062e-14,0.85739,0.000809,0,0.00010784,-1.7505e-14,5.0822e-21,0,0.33658,-2.914e-11,0.0069125,0.013208,1,0.809,1,0.025,0
0.0032268,7.0331e-14,0.85903,0.00081,0,0.00011209,-1.7787e-14,5.9292e-21,0,0.34659,-2.9077e-11,0.007333,0.013609,1,0.81,1,0.025,0
0.0029971,6.79e-14,0.8609,0.000811,0,0.00010545,-1.6884e-14,5.0822e-21,0,0.32064,-2.7215e-11,0.0063174,0.012572,1,0.811,1,0.025,0
0.0031471,6.2624e-14,0.86246,0.000812,0,0.00011247,-1.5358e-14,6.7763e-21,0,0.33944,-2.449e-11,0.0070894,0.013325,1,0.812,1,0.025,0
0.0032291,5.5149e-14,0.86405,0.000813,0,0.00011716,-1.5177e-14,5.9292e-21,0,0.35028,-2.4071e-11,0.0075464,0.013759,1,0.813,1,0.025,0
0.0030126,4.898e-14,0.86587,0.000814,0,0.00011075,-1.4414e-14,5.9292e-21,0,0.32574,-2.2658e-11,0.0065909,0.012779,1,0.814,1,0.025,0
0.0031578,4.5651e-14,0.86738,0.000815,0,0.00011791,-1.4509e-14,5.0822e-21,0,0.34405,-2.2608e-11,0.0073462,0.013512,1,0.815,1,0.025,0
0.0032391,4.1647e-14,0.86893,0.000816,0,0.00012279,-1.5851e-14,5.9292e-21,0,0.35483,-2.449e-11,0.0078037,0.013944,1,0.816,1,0.025,0
0.0030314,3.9242e-14,0.87071,0.000817,0,0.00011648,-1.74e-14,5.9292e-21,0,0.33118,-2.6561e-11,0.006887,0.012999,1,0.817,1,0.025,0
0.0031703,4.5167e-14,0.87218,0.000818,0,0.00012371,-1.8457e-14,5.0822e-21,0,0.3488,-2.7578e-11,0.007617,0.013705,1,0.818,1,0.025,0
0.0030046,5.4145e-14,0.87389,0.000819,0,0.00011887,-1.8092e-14,5.0822e-21,0,0.33004,-2.6342e-11,0.0068965,0.012956,1,0.819,1,0.025,0
0.0031559,5.2715e-14,0.87533,0.00082,0,0.0001268,-1.7418e-14,5.0822e-21,0,0.34918,-2.5013e-11,0.0076883,0.013722,1,0.82,1,0.025,0
0.0030047,4.5457e-14,0.877,0.000821,0,0.00012244,-1.8033e-14,5.9292e-21,0,0.33209,-2.5757e-11,0.0070359,0.01304,1,0.821,1,0.025,0
0.0031565,4.7512e-14,0.87841,0.000822,0,0.00013062,-1.7185e-14,4.2352e-21,0,0.35132,-2.4109e-11,0.0078329,0.01381,1,0.822,1,0.025,0
0.0030123,4.4182e-14,0.88005,0.000823,0,0.00012644,-1.6371e-14,6.7763e-21,0,0.335,-2.271e-11,0.0072132,0.013159,1,0.823,1,0.025,0
0.0031612,4.4576e-14,0.88143,0.000824,0,0.00013474,-1.684e-14,4.2352e-21,0,0.35394,-2.2999e-11,0.0079998,0.013917,1,0.824,1,0.025,0
0.003022,4.6128e-14,0.88304,0.000825,0,0.00013067,-1.6443e-14,5.0822e-21,0,0.33813,-2.2061e-11,0.0074023,0.013286,1,0.825,1,0.025,0
0.0031672,4.0191e-14,0.88439,0.000826,0,0.00013905,-1.5744e-14,6.7763e-21,0,0.35666,-2.0862e-11,0.0081738,0.014029,1,0.826,1,0.025,0
0.003032,4.2237e-14,0.88597,0.000827,0,0.00013506,-1.5219e-14,5.9292e-21,0,0.34128,-1.9836e-11,0.0075949,0.013415,1,0.827,1,0.025,0
0.0031733,4.845e-14,0.8873,0.000828,0,0.00014352,-1.4638e-14,4.2352e-21,0,0.35937,-1.8597e-11,0.00835,0.014139,1,0.828,1,0.025,0
0.003042,3.9801e-14,0.88884,0.000829,0,0.00013961,-1.2813e-14,5.0822e-21,0,0.34439,-1.6235e-11,0.0077885,0.013542,1,0.829,1,0.025,0
0.0029706,3.3741e-14,0.89033,0.00083,0,0.00013834,-1.1613e-14,5.0822e-21,0,0.3366,-1.4664e-11,0.0075122,0.013232,1,0.83,1,0.025,0
0.0031349,2.8077e-14,0.89159,0.000831,0,0.00014822,-1.1073e-14,4.2352e-21,0,0.3575,-1.3989e-11,0.0083805,0.014069,1,0.831,1,0.025,0
0.0030291,2.2303e-14,0.89308,0.000832,0,0.00014535,-1.1115e-14,5.0822e-21,0,0.34552,-1.4009e-11,0.00794,0.013591,1,0.832,1,0.025,0
0.0029703,2.4152e-14,0.89451,0.000833,0,0.00014466,-1.041e-14,5.0822e-21,0,0.33921,-1.2885e-11,0.0077245,0.01334,1,0.833,1,0.025,0
0.0031331,2.1982e-14,0.89573,0.000834,0,0.0001549,-9.123e-15,6.7763e-21,0,0.36,-1.1251e-11,0.0085898,0.014173,1,0.834,1,0.025,0
0.0030361,1.7604e-14,0.89717,0.000835,0,0.00015237,-9.0889e-15,5.9292e-21,0,0.34901,-1.1211e-11,0.0081908,0.013735,1,0.835,1,0.025,0
0.002981,1.7575e-14,0.89856,0.000836,0,0.00015185,-8.7494e-15,5.9292e-21,0,0.34308,-1.0638e-11,0.0079927,0.0135,1,0.836,1,0.025,0
0.0031382,4.4144e-15,0.89974,0.000837,0,0.00016226,-8.6589e-15,6.7763e-21,0,0.36324,-1.0825e-11,0.0088339,0.014307,1,0.837,1,0.025,0
0.0030467,3.6868e-15,0.90113,0.000838,0,0.00015992,-1.0094e-14,6.7763e-21,0,0.35284,-1.2301e-11,0.0084602,0.013893,1,0.838,1,0.025,0
0.0029935,6.4942e-15,0.90248,0.000839,0,0.0001595,-1.0934e-14,5.0822e-21,0,0.34709,-1.2962e-11,0.008271,0.013664,1,0.839,1,0.025,0
0.0029628,1.3551e-14,0.90379,0.00084,0,0.00016024,-1.0558e-14,5.0822e-21,0,0.34408,-1.2143e-11,0.0081905,0.013545,1,0.84,1,0.025,0
0.0031234,1.4668e-14,0.90492,0.000841,0,0.00017143,-1.0196e-14,5.9292e-21,0,0.36469,-1.1539e-11,0.0090511,0.014371,1,0.841,1,0.025,0
0.0030467,1.0476e-14,0.90624,0.000842,0,0.00016978,-1.0837e-14,5.9292e-21,0,0.35601,-1.2168e-11,0.0087477,0.014026,1,0.842,1,0.025,0
0.0030009,1.4801e-14,0.90753,0.000843,0,0.00016976,-1.1258e-14,6.7763e-21,0,0.3511,-1.2285e-11,0.0085937,0.013831,1,0.843,1,0.025,0
0.0029738,1.6669e-14,0.90878,0.000844,0,0.00017077,-1.1143e-14,6.7763e-21,0,0.34846,-1.1927e-11,0.0085301,0.013727,1,0.844,1,0.025,0
0.002958,1.5335e-14,0.91001,0.000845,0,0.00017243,-1.1372e-14,5.0822e-21,0,0.34721,-1.2013e-11,0.0085218,0.013679,1,0.845,1,0.025,0
0.0031155,1.5279e-14,0.91107,0.000846,0,0.00018428,-1.1737e-14,5.9292e-21,0,0.3675,-1.2213e-11,0.0093709,0.014491,1,0.846,1,0.025,0
0.0030514,1.8277e-14,0.91232,0.000847,0,0.00018326,-1.1704e-14,5.0822e-21,0,0.36027,-1.1917e-11,0.0091273,0.014204,1,0.847,1,0.025,0
0.003012,1.7259e-14,0.91354,0.000848,0,0.00018364,-1.1746e-14,5.0822e-21,0,0.35604,-1.179e-11,0.0090028,0.014037,1,0.848,1,0.025,0
0.0029879,1.4569e-14,0.91472,0.000849,0,0.00018493,-1.2815e-14,5.9292e-21,0,0.35369,-1.2709e-11,0.0089526,0.013944,1,0.849,1,0.025,0
0.0029733,1.6013e-14,0.91589,0.00085,0,0.00018681,-1.3955e-14,5.9292e-21,0,0.35252,-1.3542e-11,0.0089493,0.013899,1,0.85,1,0.025,0
0.0029649,1.2883e-14,0.91703,0.000851,0,0.00018909,-1.6085e-14,5.0822e-21,0,0.35209,-1.5415e-11,0.0089756,0.013884,1,0.851,1,0.025,0
0.0029603,1.7771e-14,0.91816,0.000852,0,0.00019164,-1.7567e-14,5.9292e-21,0,0.35212,-1.6382e-11,0.0090206,0.013887,1,0.852,1,0.025,0
0.0029581,2.0675e-14,0.91928,0.000853,0,0.00019439,-1.862e-14,5.9292e-21,0,0.35245,-1.6971e-11,0.0090777,0.013901,1,0.853,1,0.025,0
0.0029576,2.973e-14,0.92038,0.000854,0,0.00019728,-1.8623e-14,7.6233e-21,0,0.35296,-1.6406e-11,0.0091424,0.013924,1,0.854,1,0.025,0
0.0029641,3.3854e-14,0.92129,0.000855,0,0.0002002,-1.8479e-14,8.4703e-21,0,0.35426,-1.5917e-11,0.0092292,0.013977,1,0.855,1,0.025,0
0.002977,3.4152e-14,0.92196,0.000856,0,0.00020299,-1.8661e-14,6.7763e-21,0,0.35625,-1.5931e-11,0.009332,0.014057,1,0.856,1,0.025,0
0.002992,3.1468e-14,0.92248,0.000857,0,0.00020552,-2.0298e-14,5.0822e-21,0,0.35841,-1.7326e-11,0.0094334,0.014144,1,0.857,1,0.025,0
0.0030068,3.3643e-14,0.92288,0.000858,0,0.00020775,-2.0536e-14,6.7763e-21,0,0.3605,-1.7355e-11,0.0095262,0.014228,1,0.858,1,0.025,0
0.0030197,3.5477e-14,0.92324,0.000859,0,0.00020972,-2.0515e-14,5.9292e-21,0,0.36231,-1.7184e-11,0.0096047,0.014301,1,0.859,1,0.025,0
0.0030294,3.8495e-14,0.92359,0.00086,0,0.00021147,-2.0494e-14,6.7763e-21,0,0.36372,-1.6986e-11,0.0096667,0.014357,1,0.86,1,0.025,0
0.003039,3.6902e-14,0.92388,0.000861,0,0.00021305,-2.0224e-14,4.2352e-21,0,0.36508,-1.6762e-11,0.0097234,0.014412,1,0.861,1,0.025,0
0.0030476,3.4128e-14,0.92414,0.000862,0,0.00021447,-2.0926e-14,6.7763e-21,0,0.3663,-1.7413e-11,0.009772,0.014461,1,0.862,1,0.025,0
0.003056,3.388e-14,0.92436,0.000863,0,0.00021574,-2.0396e-14,6.7763e-21,0,0.36747,-1.6907e-11,0.0098156,0.014508,1,0.863,1,0.025,0
0.003065,3.7521e-14,0.92451,0.000864,0,0.00021685,-1.8566e-14,6.7763e-21,0,0.36867,-1.5181e-11,0.0098566,0.014555,1,0.864,1,0.025,0
0.0030719,3.6354e-14,0.92466,0.000865,0,0.00021782,-1.8389e-14,6.7763e-21,0,0.36961,-1.5028e-11,0.0098869,0.014593,1,0.865,1,0.025,0
0.0030775,3.7489e-14,0.92481,0.000866,0,0.00021869,-1.7804e-14,5.0822e-21,0,0.37038,-1.4465e-11,0.0099094,0.014623,1,0.866,1,0.025,0
0.0030825,3.7449e-14,0.92494,0.000867,0,0.00021949,-1.73e-14,6.7763e-21,0,0.37106,-1.4012e-11,0.0099279,0.01465,1,0.867,1,0.025,0
0.0030867,3.603e-14,0.92508,0.000868,0,0.00022022,-1.7282e-14,5.0822e-21,0,0.37163,-1.4013e-11,0.0099415,0.014672,1,0.868,1,0.025,0
0.0030903,3.4229e-14,0.92522,0.000869,0,0.00022091,-1.7798e-14,5.9292e-21,0,0.37212,-1.4476e-11,0.0099515,0.014691,1,0.869,1,0.025,0
0.0030939,3.4251e-14,0.92534,0.00087,0,0.00022156,-1.8062e-14,4.2352e-21,0,0.37262,-1.469e-11,0.0099606,0.014711,1,0.87,1,0.025,0
0.0030978,3.2813e-14,0.92545,0.000871,0,0.00022218,-1.7882e-14,5.0822e-21,0,0.37311,-1.4569e-11,0.0099687,0.01473,1,0.871,1,0.025,0
0.0031017,3.3079e-14,0.92554,0.000872,0,0.00022274,-1.7307e-14,5.9292e-21,0,0.37361,-1.4057e-11,0.0099757,0.014749,1,0.872,1,0.025,0
0.003105,3.2252e-14,0.92563,0.000873,0,0.00022326,-1.7325e-14,5.0822e-21,0,0.37403,-1.4083e-11,0.0099794,0.014766,1,0.873,1,0.025,0
0.003108,3.1565e-14,0.92572,0.000874,0,0.00022376,-1.7505e-14,5.0822e-21,0,0.3744,-1.4228e-11,0.0099807,0.01478,1,0.874,1,0.025,0
0.0031106,3.1722e-14,0.92581,0.000875,0,0.00022423,-1.7545e-14,5.0822e-21,0,0.37473,-1.4229e-11,0.0099802,0.014793,1,0.875,1,0.025,0
0.0031131,3.1378e-14,0.9259,0.000876,0,0.00022469,-1.7752e-14,6.7763e-21,0,0.37503,-1.4397e-11,0.0099782,0.014804,1,0.876,1,0.025,0
0.0031154,3.2798e-14,0.92599,0.000877,0,0.00022513,-1.734e-14,6.7763e-21,0,0.37531,-1.3986e-11,0.0099751,0.014815,1,0.877,1,0.025,0
0.0031175,3.1799e-14,0.92608,0.000878,0,0.00022557,-1.7719e-14,5.0822e-21,0,0.37557,-1.431e-11,0.0099712,0.014825,1,0.878,1,0.025,0
0.0031196,3.2118e-14,0.92617,0.000879,0,0.000226,-1.7871e-14,5.0822e-21,0,0.37583,-1.4398e-11,0.0099666,0.014834,1,0.879,1,0.025,0
0.0031216,3.0824e-14,0.92626,0.00088,0,0.00022643,-1.8409e-14,5.0822e-21,0,0.37607,-1.4882e-11,0.0099615,0.014844,1,0.88,1,0.025,0
0.0031236,3.1077e-14,0.92635,0.000881,0,0.00022685,-1.818e-14,5.9292e-21,0,0.3763,-1.4663e-11,0.0099558,0.014852,1,0.881,1,0.025,0
0.0031255,3.0777e-14,0.92644,0.000882,0,0.00022727,-1.8072e-14,5.9292e-21,0,0.37653,-1.4571e-11,0.0099498,0.014861,1,0.882,1,0.025,0
0.0031277,3.2908e-14,0.92652,0.000883,0,0.00022769,-1.6843e-14,5.0822e-21,0,0.3768,-1.3469e-11,0.0099445,0.014871,1,0.883,1,0.025,0
0.0031299,3.1668e-14,0.9266,0.000884,0,0.00022809,-1.6525e-14,5.0822e-21,0,0.37704,-1.3238e-11,0.0099384,0.01488,1,0.884,1,0.025,0
0.0031319,3.4309e-14,0.92668,0.000885,0,0.00022849,-1.4756e-14,5.9292e-21,0,0.37728,-1.1678e-11,0.0099316,0.014889,1,0.885,1,0.025,0
0.0031342,3.2211e-14,0.92675,0.000886,0,0.00022887,-1.5065e-14,5.9292e-21,0,0.37754,-1.1993e-11,0.0099255,0.014899,1,0.886,1,0.025,0
0.0031369,3.2228e-14,0.92681,0.000887,0,0.00022924,-1.4896e-14,5.9292e-21,0,0.37783,-1.1833e-11,0.0099198,0.01491,1,0.887,1,0.025,0
0.0031392,3.1581e-14,0.92687,0.000888,0,0.00022959,-1.5271e-14,6.7763e-21,0,0.37809,-1.2153e-11,0.0099125,0.014919,1,0.888,1,0.025,0
0.0030111,3.2277e-14,0.92693,0.000889,0,0.0002201,-1.5483e-14,7.6233e-21,0,0.36173,-1.2298e-11,0.0092362,0.014264,1,0.889,1,0.025,0
0.0030508,3.3559e-14,0.92697,0.00089,0,0.00022318,-1.5033e-14,6.7763e-21,0,0.36668,-1.1866e-11,0.009415,0.014462,1,0.89,1,0.025,0
0.0030795,3.3573e-14,0.92702,0.000891,0,0.00022546,-1.547e-14,5.0822e-21,0,0.37026,-1.2218e-11,0.0095391,0.014604,1,0.891,1,0.025,0
0.0031004,3.1167e-14,0.92707,0.000892,0,0.00022716,-1.6682e-14,5.9292e-21,0,0.37286,-1.3285e-11,0.0096242,0.014707,1,0.892,1,0.025,0
0.0031158,3.1849e-14,0.92712,0.000893,0,0.00022845,-1.6703e-14,5.0822e-21,0,0.37477,-1.3256e-11,0.0096816,0.014783,1,0.893,1,0.025,0
0.0031272,3.2324e-14,0.92717,0.000894,0,0.00022944,-1.6636e-14,6.7763e-21,0,0.37617,-1.3176e-11,0.0097191,0.014838,1,0.894,1,0.025,0
0.0031358,3.4989e-14,0.92721,0.000895,0,0.00023023,-1.5883e-14,7.6233e-21,0,0.37722,-1.2457e-11,0.0097424,0.014879,1,0.895,1,0.025,0
0.0031425,3.2913e-14,0.92726,0.000896,0,0.00023086,-1.6165e-14,5.9292e-21,0,0.37802,-1.2753e-11,0.0097555,0.014911,1,0.896,1,0.025,0
0.0031477,3.3719e-14,0.92731,0.000897,0,0.00023139,-1.6712e-14,7.6233e-21,0,0.37863,-1.3156e-11,0.0097613,0.014934,1,0.897,1,0.025,0
0.003022,3.748e-14,0.92736,0.000898,0,0.00022202,-1.7033e-14,5.9292e-21,0,0.36257,-1.3278e-11,0.0090965,0.014291,1,0.898,1,0.025,0
0.0030623,3.8524e-14,0.92741,0.000899,0,0.00022518,-1.7996e-14,6.7763e-21,0,0.36761,-1.401e-11,0.0092782,0.014492,1,0.899,1,0.025,0
0.0030915,3.9324e-14,0.92746,0.0009,0,0.00022751,-1.8953e-14,8.4703e-21,0,0.37126,-1.4745e-11,0.0094045,0.014637,1,0.9,1,0.025,0
0.0031127,4.1424e-14,0.9275,0.000901,0,0.00022925,-1.9323e-14,6.7763e-21,0,0.37391,-1.4951e-11,0.0094912,0.014743,1,0.901,1,0.025,0
0.0031287,3.9965e-14,0.92755,0.000902,0,0.00023057,-2.1063e-14,7.6233e-21,0,0.37588,-1.64e-11,0.0095505,0.014821,1,0.902,1,0.025,0
0.0031405,4.2123e-14,0.92759,0.000903,0,0.00023158,-2.1109e-14,6.7763e-21,0,0.37733,-1.6353e-11,0.0095892,0.014878,1,0.903,1,0.025,0
0.0031494,4.2712e-14,0.92763,0.000904,0,0.00023237,-2.1512e-14,5.9292e-21,0,0.37842,-1.6647e-11,0.009613,0.01492,1,0.904,1,0.025,0
0.0031563,4.6252e-14,0.92767,0.000905,0,0.000233,-2.121e-14,5.0822e-21,0,0.37923,-1.6261e-11,0.0096262,0.014952,1,0.905,1,0.025,0
0.0030329,4.8437e-14,0.92771,0.000906,0,0.0002237,-2.1033e-14,5.9292e-21,0,0.36343,-1.6051e-11,0.0089706,0.01432,1,0.906,1,0.025,0
0.0030737,4.6836e-14,0.92774,0.000907,0,0.00022687,-2.1444e-14,4.2352e-21,0,0.36854,-1.6425e-11,0.0091541,0.014523,1,0.907,1,0.025,0
0.0031034,4.7377e-14,0.92778,0.000908,0,0.0002292,-2.1389e-14,6.7763e-21,0,0.37224,-1.6347e-11,0.0092815,0.01467,1,0.908,1,0.025,0
0.0031253,4.801e-14,0.92781,0.000909,0,0.00023093,-2.1124e-14,5.9292e-21,0,0.37496,-1.6108e-11,0.0093697,0.014778,1,0.909,1,0.025,0
0.0031415,4.7507e-14,0.92783,0.00091,0,0.00023222,-2.1246e-14,4.2352e-21,0,0.37695,-1.6214e-11,0.0094286,0.014857,1,0.91,1,0.025,0
0.0031538,5.18e-14,0.92785,0.000911,0,0.0002332,-1.9653e-14,5.0822e-21,0,0.37844,-1.4768e-11,0.0094675,0.014916,1,0.911,1,0.025,0
0.003163,5.1396e-14,0.92788,0.000912,0,0.00023394,-1.9813e-14,5.0822e-21,0,0.37954,-1.4913e-11,0.0094908,0.014959,1,0.912,1,0.025,0
0.0030416,5.088e-14,0.9279,0.000913,0,0.0002247,-2.0363e-14,6.7763e-21,0,0.36397,-1.5389e-11,0.008843,0.014335,1,0.913,1,0.025,0
0.0030832,4.9616e-14,0.92792,0.000914,0,0.0002279,-2.0958e-14,5.0822e-21,0,0.36916,-1.5907e-11,0.0090289,0.014542,1,0.914,1,0.025,0
0.0031134,4.7651e-14,0.92794,0.000915,0,0.00023023,-2.1913e-14,5.9292e-21,0,0.37292,-1.6735e-11,0.0091577,0.014692,1,0.915,1,0.025,0
0.0031355,4.8396e-14,0.92796,0.000916,0,0.00023195,-2.1787e-14,5.0822e-21,0,0.37566,-1.6604e-11,0.0092457,0.0148,1,0.916,1,0.025,0
0.0031518,4.8451e-14,0.92798,0.000917,0,0.00023323,-2.209e-14,6.7763e-21,0,0.37765,-1.6853e-11,0.0093043,0.014879,1,0.917,1,0.025,0
0.0031638,4.9602e-14,0.928,0.000918,0,0.00023419,-2.2617e-14,5.0822e-21,0,0.37912,-1.7223e-11,0.0093417,0.014937,1,0.918,1,0.025,0
0.0031729,5.0426e-14,0.92803,0.000919,0,0.00023493,-2.2983e-14,7.6233e-21,0,0.3802,-1.7479e-11,0.009364,0.01498,1,0.919,1,0.025,0
0.0030516,4.9779e-14,0.92805,0.00092,0,0.00022567,-2.3938e-14,6.7763e-21,0,0.36464,-1.828e-11,0.0087162,0.014356,1,0.92,1,0.025,0
0.003093,5.1081e-14,0.92807,0.000921,0,0.00022886,-2.3873e-14,7.6233e-21,0,0.36981,-1.8165e-11,0.0089007,0.014562,1,0.921,1,0.025,0
0.003123,5.2446e-14,0.92809,0.000922,0,0.00023119,-2.3675e-14,2.5411e-21,0,0.37355,-1.7946e-11,0.0090285,0.014711,1,0.922,1,0.025,0
0.003145,5.4392e-14,0.92811,0.000923,0,0.0002329,-2.3164e-14,5.0822e-21,0,0.37627,-1.7454e-11,0.0091157,0.014819,1,0.923,1,0.025,0
0.0031612,5.6547e-14,0.92813,0.000924,0,0.00023418,-2.2969e-14,5.0822e-21,0,0.37826,-1.7208e-11,0.0091737,0.014897,1,0.924,1,0.025,0
0.0031732,5.6544e-14,0.92815,0.000925,0,0.00023514,-2.3277e-14,3.3881e-21,0,0.37972,-1.745e-11,0.0092107,0.014955,1,0.925,1,0.025,0
0.0031822,5.5536e-14,0.92818,0.000926,0,0.00023588,-2.4e-14,5.0822e-21,0,0.3808,-1.8059e-11,0.0092325,0.014997,1,0.926,1,0.025,0
0.0030611,5.6455e-14,0.9282,0.000927,0,0.00022662,-2.4169e-14,5.9292e-21,0,0.36526,-1.8173e-11,0.0085854,0.014375,1,0.927,1,0.025,0
0.0031023,5.9105e-14,0.92822,0.000928,0,0.0002298,-2.3309e-14,5.0822e-21,0,0.37041,-1.7381e-11,0.0087688,0.01458,1,0.928,1,0.025,0
0.0031322,5.8572e-14,0.92824,0.000929,0,0.00023212,-2.3482e-14,8.4703e-21,0,0.37414,-1.7531e-11,0.0088959,0.014728,1,0.929,1,0.025,0
0.0031541,5.7944e-14,0.92826,0.00093,0,0.00023384,-2.3805e-14,5.0822e-21,0,0.37685,-1.7807e-11,0.0089825,0.014836,1,0.93,1,0.025,0
0.0031702,5.6813e-14,0.92828,0.000931,0,0.00023512,-2.4371e-14,5.0822e-21,0,0.37883,-1.8293e-11,0.0090401,0.014915,1,0.931,1,0.025,0
0.0031822,5.6903e-14,0.92831,0.000932,0,0.00023608,-2.4543e-14,6.7763e-21,0,0.38029,-1.8422e-11,0.0090767,0.014972,1,0.932,1,0.025,0
0.0031912,5.8079e-14,0.92833,0.000933,0,0.00023682,-2.4327e-14,5.9292e-21,0,0.38137,-1.8201e-11,0.0090983,0.015014,1,0.933,1,0.025,0
0.0030704,5.8201e-14,0.92835,0.000934,0,0.00022756,-2.4663e-14,8.4703e-21,0,0.36586,-1.8477e-11,0.008452,0.014393,1,0.934,1,0.025,0
0.0031114,5.8816e-14,0.92837,0.000935,0,0.00023073,-2.4541e-14,3.3881e-21,0,0.37099,-1.8346e-11,0.0086345,0.014597,1,0.935,1,0.025,0
0.0031412,5.7107e-14,0.92839,0.000936,0,0.00023305,-2.5445e-14,6.7763e-21,0,0.3747,-1.912e-11,0.0087609,0.014745,1,0.936,1,0.025,0
0.003163,5.9701e-14,0.92841,0.000937,0,0.00023477,-2.522e-14,6.7763e-21,0,0.37741,-1.8825e-11,0.0088471,0.014852,1,0.937,1,0.025,0
0.0031791,5.9245e-14,0.92843,0.000938,0,0.00023605,-2.603e-14,5.9292e-21,0,0.37939,-1.948e-11,0.0089044,0.014931,1,0.938,1,0.025,0
0.003191,5.9877e-14,0.92846,0.000939,0,0.00023701,-2.6382e-14,7.6233e-21,0,0.38085,-1.9731e-11,0.0089407,0.014988,1,0.939,1,0.025,0
0.0030728,6.1939e-14,0.92848,0.00094,0,0.00022793,-2.6239e-14,9.3174e-21,0,0.36566,-1.9558e-11,0.0083075,0.01438,1,0.94,1,0.025,0
0.003115,6.2048e-14,0.9285,0.000941,0,0.00023121,-2.6396e-14,8.4703e-21,0,0.37096,-1.9663e-11,0.0084967,0.014591,1,0.941,1,0.025,0
0.0031458,6.1668e-14,0.92852,0.000942,0,0.00023362,-2.6497e-14,5.9292e-21,0,0.37481,-1.9748e-11,0.0086281,0.014744,1,0.942,1,0.025,0
0.0031683,6.4045e-14,0.92854,0.000943,0,0.0002354,-2.5618e-14,8.4703e-21,0,0.37761,-1.8947e-11,0.008718,0.014855,1,0.943,1,0.025,0
0.0031849,6.3806e-14,0.92856,0.000944,0,0.00023672,-2.5447e-14,8.4703e-21,0,0.37966,-1.8813e-11,0.0087779,0.014936,1,0.944,1,0.025,0
0.0031972,6.371e-14,0.92858,0.000945,0,0.00023771,-2.554e-14,8.4703e-21,0,0.38116,-1.8886e-11,0.0088163,0.014995,1,0.945,1,0.025,0
0.0030795,6.3536e-14,0.92861,0.000946,0,0.00022866,-2.5858e-14,7.6233e-21,0,0.36604,-1.916e-11,0.0081856,0.01439,1,0.946,1,0.025,0
0.0031218,6.2503e-14,0.92863,0.000947,0,0.00023195,-2.6129e-14,1.1011e-20,0,0.37135,-1.9408e-11,0.0083752,0.014601,1,0.947,1,0.025,0
0.0031527,6.2485e-14,0.92865,0.000948,0,0.00023437,-2.6172e-14,1.0164e-20,0,0.37521,-1.9413e-11,0.008507,0.014755,1,0.948,1,0.025,0
0.0031752,6.4129e-14,0.92867,0.000949,0,0.00023615,-2.5705e-14,6.7763e-21,0,0.37802,-1.8977e-11,0.0085972,0.014866,1,0.949,1,0.025,0
0.0031918,6.3411e-14,0.92869,0.00095,0,0.00023748,-2.6227e-14,8.4703e-21,0,0.38007,-1.9414e-11,0.0086575,0.014947,1,0.95,1,0.025,0
0.0032042,6.3779e-14,0.92871,0.000951,0,0.00023848,-2.6327e-14,6.7763e-21,0,0.38159,-1.9476e-11,0.0086961,0.015007,1,0.951,1,0.025,0
0.0030867,6.6324e-14,0.92874,0.000952,0,0.00022943,-2.6324e-14,1.1858e-20,0,0.3665,-1.9391e-11,0.0080665,0.014403,1,0.952,1,0.025,0
0.0031291,6.5754e-14,0.92875,0.000953,0,0.00023272,-2.7e-14,7.6233e-21,0,0.37181,-1.9939e-11,0.0082562,0.014614,1,0.953,1,0.025,0
0.00316,6.5783e-14,0.92877,0.000954,0,0.00023513,-2.7555e-14,9.3174e-21,0,0.37567,-2.0374e-11,0.008388,0.014768,1,0.954,1,0.025,0
0.0031826,6.7737e-14,0.92879,0.000955,0,0.00023691,-2.6994e-14,6.7763e-21,0,0.37849,-1.9846e-11,0.0084782,0.01488,1,0.955,1,0.025,0
0.0031993,6.7026e-14,0.92881,0.000956,0,0.00023823,-2.7345e-14,6.7763e-21,0,0.38055,-2.0156e-11,0.0085383,0.014961,1,0.956,1,0.025,0
0.0032117,6.7366e-14,0.92882,0.000957,0,0.00023922,-2.7392e-14,8.4703e-21,0,0.38206,-2.0175e-11,0.0085767,0.015021,1,0.957,1,0.025,0
0.0030944,6.7954e-14,0.92884,0.000958,0,0.00023016,-2.7614e-14,6.7763e-21,0,0.36699,-2.0346e-11,0.0079477,0.014417,1,0.958,1,0.025,0
0.0031366,6.7649e-14,0.92886,0.000959,0,0.00023343,-2.7776e-14,1.0164e-20,0,0.37228,-2.0472e-11,0.008136,0.014628,1,0.959,1,0.025,0
0.0031673,6.7204e-14,0.92888,0.00096,0,0.00023584,-2.7965e-14,6.7763e-21,0,0.37612,-2.0626e-11,0.0082669,0.01478,1,0.96,1,0.025,0
0.00319,6.586e-14,0.92889,0.000961,0,0.00023761,-2.8667e-14,1.1858e-20,0,0.37894,-2.1226e-11,0.008357,0.014892,1,0.961,1,0.025,0
0.0032067,6.5744e-14,0.9289,0.000962,0,0.00023892,-2.9015e-14,7.6233e-21,0,0.381,-2.15e-11,0.008417,0.014974,1,0.962,1,0.025,0
0.0032191,6.7121e-14,0.92891,0.000963,0,0.0002399,-2.8716e-14,1.1011e-20,0,0.38251,-2.1204e-11,0.0084552,0.015033,1,0.963,1,0.025,0
0.0031021,6.5852e-14,0.92893,0.000964,0,0.00023081,-2.939e-14,7.6233e-21,0,0.36746,-2.1801e-11,0.0078264,0.01443,1,0.964,1,0.025,0
0.0031441,6.6979e-14,0.92894,0.000965,0,0.00023407,-2.8566e-14,8.4703e-21,0,0.37273,-2.1097e-11,0.0080139,0.01464,1,0.965,1,0.025,0
0.003175,6.627e-14,0.92895,0.000966,0,0.00023645,-2.866e-14,8.4703e-21,0,0.37658,-2.1192e-11,0.0081447,0.014793,1,0.966,1,0.025,0
0.0031976,6.5156e-14,0.92896,0.000967,0,0.0002382,-2.921e-14,8.4703e-21,0,0.37938,-2.1662e-11,0.008234,0.014905,1,0.967,1,0.025,0
0.0032143,6.6051e-14,0.92897,0.000968,0,0.0002395,-2.8811e-14,6.7763e-21,0,0.38143,-2.1309e-11,0.0082933,0.014986,1,0.968,1,0.025,0
0.0032267,6.7467e-14,0.92898,0.000969,0,0.00024046,-2.806e-14,1.1011e-20,0,0.38294,-2.0663e-11,0.0083308,0.015045,1,0.969,1,0.025,0
0.0031099,6.7933e-14,0.92898,0.00097,0,0.00023135,-2.828e-14,9.3174e-21,0,0.3679,-2.084e-11,0.0077022,0.014443,1,0.97,1,0.025,0
0.003152,6.8269e-14,0.92899,0.000971,0,0.00023459,-2.8257e-14,7.6233e-21,0,0.37317,-2.08e-11,0.007889,0.014652,1,0.971,1,0.025,0
0.0031827,6.8302e-14,0.92899,0.000972,0,0.00023695,-2.8315e-14,1.0164e-20,0,0.37699,-2.0839e-11,0.0080186,0.014804,1,0.972,1,0.025,0
0.0032052,6.7693e-14,0.929,0.000973,0,0.00023868,-2.8622e-14,9.3174e-21,0,0.37978,-2.1102e-11,0.0081069,0.014915,1,0.973,1,0.025,0
0.0032218,6.741e-14,0.929,0.000974,0,0.00023995,-2.8948e-14,1.0164e-20,0,0.38182,-2.1368e-11,0.0081654,0.014996,1,0.974,1,0.025,0
0.0032341,6.8347e-14,0.92901,0.000975,0,0.00024089,-2.8855e-14,9.3174e-21,0,0.38331,-2.1262e-11,0.0082022,0.015054,1,0.975,1,0.025,0
0.0031172,7.0084e-14,0.92902,0.000976,0,0.00023177,-2.8721e-14,6.7763e-21,0,0.36825,-2.1112e-11,0.0075726,0.014451,1,0.976,1,0.025,0
0.0031591,7.0857e-14,0.92902,0.000977,0,0.00023499,-2.8602e-14,8.4703e-21,0,0.37349,-2.0985e-11,0.0077584,0.01466,1,0.977,1,0.025,0
0.0031896,7.009e-14,0.92903,0.000978,0,0.00023734,-2.8744e-14,7.6233e-21,0,0.37731,-2.1122e-11,0.0078873,0.014811,1,0.978,1,0.025,0
0.003212,6.9673e-14,0.92903,0.000979,0,0.00023907,-2.907e-14,1.1858e-20,0,0.38008,-2.139e-11,0.0079751,0.014922,1,0.979,1,0.025,0
0.0032286,7.0855e-14,0.92904,0.00098,0,0.00024034,-2.8641e-14,9.3174e-21,0,0.38211,-2.1006e-11,0.0080331,0.015002,1,0.98,1,0.025,0
0.0032409,6.9601e-14,0.92904,0.000981,0,0.00024128,-2.9319e-14,8.4703e-21,0,0.3836,-2.1584e-11,0.0080697,0.01506,1,0.981,1,0.025,0
0.0031239,7.0625e-14,0.92905,0.000982,0,0.00023215,-2.9504e-14,1.0164e-20,0,0.36854,-2.1715e-11,0.00744,0.014457,1,0.982,1,0.025,0
0.0031657,7.0916e-14,0.92905,0.000983,0,0.00023537,-2.9258e-14,8.4703e-21,0,0.37378,-2.1505e-11,0.0076255,0.014666,1,0.983,1,0.025,0
0.0031963,7.1283e-14,0.92906,0.000984,0,0.00023772,-2.9368e-14,7.6233e-21,0,0.37758,-2.1576e-11,0.0077542,0.014817,1,0.984,1,0.025,0
0.0032186,7.1879e-14,0.92906,0.000985,0,0.00023944,-2.9452e-14,7.6233e-21,0,0.38036,-2.162e-11,0.0078418,0.014927,1,0.985,1,0.025,0
0.0032351,7.1474e-14,0.92907,0.000986,0,0.00024071,-2.974e-14,1.0164e-20,0,0.38238,-2.1861e-11,0.0078997,0.015007,1,0.986,1,0.025,0
0.0032474,7.4658e-14,0.92908,0.000987,0,0.00024165,-2.8449e-14,6.7763e-21,0,0.38387,-2.0725e-11,0.0079362,0.015066,1,0.987,1,0.025,0
0.0031305,7.7165e-14,0.92908,0.000988,0,0.00023252,-2.8017e-14,9.3174e-21,0,0.36882,-2.0316e-11,0.0073067,0.014463,1,0.988,1,0.025,0
0.0031723,7.8039e-14,0.92909,0.000989,0,0.00023574,-2.7961e-14,9.3174e-21,0,0.37405,-2.0242e-11,0.007492,0.014671,1,0.989,1,0.025,0
0.0032027,7.716e-14,0.92909,0.00099,0,0.00023809,-2.8457e-14,7.6233e-21,0,0.37785,-2.0667e-11,0.0076205,0.014822,1,0.99,1,0.025,0
0.0032251,7.6199e-14,0.9291,0.000991,0,0.00023981,-2.9167e-14,7.6233e-21,0,0.38062,-2.126e-11,0.007708,0.014932,1,0.991,1,0.025,0
0.0032415,7.6287e-14,0.9291,0.000992,0,0.00024108,-2.9374e-14,7.6233e-21,0,0.38265,-2.1419e-11,0.0077659,0.015012,1,0.992,1,0.025,0
0.0032538,7.4471e-14,0.92911,0.000993,0,0.00024202,-2.9989e-14,7.6233e-21,0,0.38413,-2.1972e-11,0.0078023,0.015071,1,0.993,1,0.025,0
0.003137,7.4984e-14,0.92911,0.000994,0,0.00023289,-3.005e-14,5.9292e-21,0,0.36909,-2.2043e-11,0.007173,0.014468,1,0.994,1,0.025,0
0.0031787,7.452e-14,0.92912,0.000995,0,0.00023611,-3.0384e-14,6.7763e-21,0,0.37431,-2.2308e-11,0.0073581,0.014676,1,0.995,1,0.025,0
0.0032091,7.4601e-14,0.92913,0.000996,0,0.00023846,-3.0677e-14,5.9292e-21,0,0.37811,-2.2529e-11,0.0074866,0.014827,1,0.996,1,0.025,0
0.0032314,7.4145e-14,0.92913,0.000997,0,0.00024018,-3.0934e-14,5.9292e-21,0,0.38088,-2.2747e-11,0.007574,0.014937,1,0.997,1,0.025,0
0.0032479,7.3449e-14,0.92914,0.000998,0,0.00024145,-3.1775e-14,5.9292e-21,0,0.38291,-2.3434e-11,0.0076319,0.015017,1,0.998,1,0.025,0
0.0032601,7.4277e-14,0.92914,0.000999,0,0.00024239,-3.2035e-14,6.7763e-21,0,0.3844,-2.3601e-11,0.0076683,0.015076,1,0.999,1,0.025,0
0.0031433,7.6718e-14,0.92915,0.001,0,0.00023326,-3.1994e-14,8.4703e-21,0,0.36935,-2.3503e-11,0.0070392,0.014473,1,1,1,0.025,0
