"NodalForces:0","NodalForces:1","damage","displacement:0","displacement:1","epsilon_xx","epsilon_xy","epsilon_yy","epsilon_zz","sigma_xx","sigma_xy","sigma_yy","sigma_zz","vtkValidPointMask","Time","Point Coordinates:0","Point Coordinates:1","Point Coordinates:2"
0,0,0,0,0,0,0,0,0,0,0,0,0,1,0,1,0.05,0
0.00014825,6.701e-06,1.5131e-12,1e-06,0,1.0153e-06,4.3016e-08,-1.4228e-22,0,0.023501,0.00067593,0.0009398,0.0009398,1,0.001,1,0.05,0
0.00029644,1.3401e-05,1.5019e-11,2e-06,0,2.0302e-06,8.6172e-08,-2.8455e-22,0,0.046994,0.0013541,0.0018793,0.0018793,1,0.002,1,0.05,0
0.00044471,2.0106e-05,8.9745e-11,3e-06,0,3.0456e-06,1.2922e-07,-4.169e-22,0,0.070498,0.0020305,0.0028192,0.0028192,1,0.003,1,0.05,0
0.0005929,2.6806e-05,3.0725e-10,4e-06,0,4.0604e-06,1.7231e-07,-5.691e-22,0,0.093989,0.0027075,0.0037586,0.0037586,1,0.004,1,0.05,0
0.00074111,3.3507e-05,7.8645e-10,5e-06,0,5.0754e-06,2.154e-07,-7.1468e-22,0,0.11748,0.0033846,0.0046981,0.0046981,1,0.005,1,0.05,0
0.00088938,4.0211e-05,1.683e-09,6e-06,0,6.0908e-06,2.5851e-07,-8.6027e-22,0,0.14099,0.004062,0.005638,0.005638,1,0.006,1,0.05,0
0.0010376,4.6913e-05,3.1878e-09,7e-06,0,7.1058e-06,3.016e-07,-9.6615e-22,0,0.16448,0.0047392,0.0065776,0.0065776,1,0.007,1,0.05,0
0.0011858,5.3615e-05,5.5292e-09,8e-06,0,8.1209e-06,3.447e-07,-1.1117e-21,0,0.18798,0.0054164,0.0075173,0.0075173,1,0.008,1,0.05,0
0.0013341,6.0318e-05,8.9718e-09,9e-06,0,9.1363e-06,3.8781e-07,-1.2838e-21,0,0.21148,0.0060937,0.0084571,0.0084571,1,0.009,1,0.05,0
0.0014823,6.7019e-05,1.3814e-08,1e-05,0,1.0151e-05,4.3089e-07,-1.4029e-21,0,0.23497,0.0067708,0.0093966,0.0093966,1,0.01,1,0.05,0
0.0016305,7.3722e-05,2.0395e-08,1.1e-05,0,1.1166e-05,4.7399e-07,-1.5617e-21,0,0.25848,0.007448,0.010336,0.010336,1,0.011,1,0.05,0
0.0017788,8.0424e-05,2.9087e-08,1.2e-05,0,1.2182e-05,5.1709e-07,-1.6411e-21,0,0.28197,0.0081252,0.011276,0.011276,1,0.012,1,0.05,0
0.001927,8.7126e-05,4.0299e-08,1.3e-05,0,1.3197e-05,5.6019e-07,-1.7999e-21,0,0.30547,0.0088024,0.012216,0.012216,1,0.013,1,0.05,0
0.0020752,9.3829e-05,5.4478e-08,1.4e-05,0,1.4212e-05,6.0329e-07,-1.9588e-21,0,0.32897,0.0094796,0.013155,0.013155,1,0.014,1,0.05,0
0.0022235,0.00010053,7.2108e-08,1.5e-05,0,1.5227e-05,6.4639e-07,-2.0911e-21,0,0.35248,0.010157,0.014095,0.014095,1,0.015,1,0.05,0
0.0023717,0.00010723,9.3698e-08,1.6e-05,0,1.6242e-05,6.8948e-07,-2.2235e-21,0,0.37597,0.010834,0.015035,0.015035,1,0.016,1,0.05,0
0.00252,0.00011394,1.1982e-07,1.7e-05,0,1.7258e-05,7.3258e-07,-2.4352e-21,0,0.39947,0.011511,0.015975,0.015975,1,0.017,1,0.05,0
0.0026682,0.00012064,1.5104e-07,1.8e-05,0,1.8273e-05,7.7567e-07,-2.5411e-21,0,0.42297,0.012188,0.016914,0.016914,1,0.018,1,0.05,0
0.0028165,0.00012734,1.8801e-07,1.9e-05,0,1.9288e-05,8.1878e-07,-2.594e-21,0,0.44647,0.012866,0.017854,0.017854,1,0.019,1,0.05,0
0.0029647,0.00013404,2.3138e-07,2e-05,0,2.0303e-05,8.6187e-07,-2.8587e-21,0,0.46997,0.013543,0.018794,0.018794,1,0.02,1,0.05,0
0.003113,0.00014075,2.8186e-07,2.1e-05,0,2.1319e-05,9.0497e-07,-2.9646e-21,0,0.49348,0.01422,0.019734,0.019734,1,0.021,1,0.05,0
0.0032612,0.00014745,3.4017e-07,2.2e-05,0,2.2334e-05,9.4807e-07,-3.1234e-21,0,0.51698,0.014897,0.020674,0.020674,1,0.022,1,0.05,0
0.0034095,0.00015415,4.0708e-07,2.3e-05,0,2.3349e-05,9.9116e-07,-3.2293e-21,0,0.54048,0.015574,0.021613,0.021613,1,0.023,1,0.05,0
0.0035577,0.00016086,4.8343e-07,2.4e-05,0,2.4364e-05,1.0343e-06,-3.4411e-21,0,0.56398,0.016252,0.022553,0.022553,1,0.024,1,0.05,0
0.003706,0.00016756,5.7006e-07,2.5e-05,0,2.538e-05,1.0774e-06,-3.494e-21,0,0.58749,0.016929,0.023493,0.023493,1,0.025,1,0.05,0
0.0038542,0.00017426,6.6781e-07,2.6e-05,0,2.6395e-05,1.1205e-06,-3.7058e-21,0,0.61099,0.017606,0.024433,0.024433,1,0.026,1,0.05,0
0.0040025,0.00018097,7.7765e-07,2.7e-05,0,2.7411e-05,1.1636e-06,-3.7587e-21,0,0.63449,0.018283,0.025373,0.025373,1,0.027,1,0.05,0
0.0041508,0.00018767,9.0048e-07,2.8e-05,0,2.8426e-05,1.2067e-06,-3.9705e-21,0,0.65799,0.01896,0.026313,0.026313,1,0.028,1,0.05,0
0.0042991,0.00019437,1.0373e-06,2.9e-05,0,2.9442e-05,1.2498e-06,-4.0234e-21,0,0.6815,0.019638,0.027253,0.027253,1,0.029,1,0.05,0
0.0044473,0.00020108,1.1893e-06,3e-05,0,3.0457e-05,1.2929e-06,-4.2352e-21,0,0.70501,0.020315,0.028193,0.028193,1,0.03,1,0.05,0
0.0045955,0.00020776,1.3531e-06,3.1e-05,0,3.1472e-05,1.336e-06,-4.341e-21,0,0.72849,0.020992,0.029132,0.029132,1,0.031,1,0.05,0
0.0047439,0.00021449,1.5379e-06,3.2e-05,0,3.2488e-05,1.3791e-06,-4.4469e-21,0,0.75202,0.021669,0.030073,0.030073,1,0.032,1,0.05,0
0.0048921,0.00022119,1.741e-06,3.3e-05,0,3.3504e-05,1.4222e-06,-4.6057e-21,0,0.77552,0.022346,0.031013,0.031013,1,0.033,1,0.05,0
0.0050403,0.00022787,1.9581e-06,3.4e-05,0,3.4518e-05,1.4653e-06,-4.7116e-21,0,0.79901,0.023024,0.031952,0.031952,1,0.034,1,0.05,0
0.0051887,0.00023459,2.2009e-06,3.5e-05,0,3.5535e-05,1.5084e-06,-4.9763e-21,0,0.82253,0.023701,0.032893,0.032893,1,0.035,1,0.05,0
0.005337,0.0002413,2.4656e-06,3.6e-05,0,3.655e-05,1.5515e-06,-4.9763e-21,0,0.84604,0.024378,0.033833,0.033833,1,0.036,1,0.05,0
0.0054852,0.00024799,2.7498e-06,3.7e-05,0,3.7565e-05,1.5946e-06,-5.1351e-21,0,0.86953,0.025056,0.034772,0.034772,1,0.037,1,0.05,0
0.0056335,0.00025469,3.0581e-06,3.8e-05,0,3.8581e-05,1.6377e-06,-5.3469e-21,0,0.89304,0.025733,0.035712,0.035712,1,0.038,1,0.05,0
0.0057819,0.00026141,3.3957e-06,3.9e-05,0,3.9597e-05,1.6808e-06,-5.3998e-21,0,0.91656,0.02641,0.036653,0.036653,1,0.039,1,0.05,0
0.00593,0.0002681,3.756e-06,4e-05,0,4.0612e-05,1.7239e-06,-5.5057e-21,0,0.94005,0.027087,0.037592,0.037592,1,0.04,1,0.05,0
0.0060783,0.0002748,4.1443e-06,4.1e-05,0,4.1628e-05,1.767e-06,-5.7704e-21,0,0.96356,0.027764,0.038532,0.038532,1,0.041,1,0.05,0
0.0062267,0.00028152,4.567e-06,4.2e-05,0,4.2644e-05,1.8101e-06,-5.9292e-21,0,0.98708,0.028441,0.039473,0.039473,1,0.042,1,0.05,0
0.0063749,0.00028821,5.0159e-06,4.3e-05,0,4.366e-05,1.8532e-06,-6.141e-21,0,1.0106,0.029118,0.040413,0.040413,1,0.043,1,0.05,0
0.0065232,0.00029491,5.497e-06,4.4e-05,0,4.4676e-05,1.8963e-06,-6.1939e-21,0,1.0341,0.029796,0.041353,0.041353,1,0.044,1,0.05,0
0.0066716,0.00030163,6.0183e-06,4.5e-05,0,4.5692e-05,1.9394e-06,-6.5645e-21,0,1.0576,0.030472,0.042293,0.042293,1,0.045,1,0.05,0
0.0068198,0.00030831,6.5689e-06,4.6e-05,0,4.6708e-05,1.9825e-06,-6.4586e-21,0,1.0811,0.03115,0.043233,0.043233,1,0.046,1,0.05,0
0.0069681,0.00031501,7.1566e-06,4.7e-05,0,4.7724e-05,2.0256e-06,-6.4586e-21,0,1.1046,0.031827,0.044173,0.044173,1,0.047,1,0.05,0
0.0071165,0.00032173,7.7905e-06,4.8e-05,0,4.874e-05,2.0687e-06,-6.5645e-21,0,1.1281,0.032503,0.045113,0.045113,1,0.048,1,0.05,0
0.0072648,0.00032844,8.4657e-06,4.9e-05,0,4.9756e-05,2.1118e-06,-6.8821e-21,0,1.1516,0.03318,0.046054,0.046054,1,0.049,1,0.05,0
0.0074129,0.00033512,9.175e-06,5e-05,0,5.0772e-05,2.1549e-06,-6.988e-21,0,1.1751,0.033858,0.046993,0.046993,1,0.05,1,0.05,0
0.0075611,0.00034181,9.9278e-06,5.1e-05,0,5.1787e-05,2.198e-06,-6.988e-21,0,1.1986,0.034534,0.047933,0.047933,1,0.051,1,0.05,0
0.0077094,0.00034851,1.0726e-05,5.2e-05,0,5.2804e-05,2.2411e-06,-7.1998e-21,0,1.2221,0.035211,0.048873,0.048873,1,0.052,1,0.05,0
0.0078579,0.00035524,1.1583e-05,5.3e-05,0,5.3821e-05,2.2842e-06,-7.3057e-21,0,1.2457,0.035888,0.049814,0.049814,1,0.053,1,0.05,0
0.008006,0.00036191,1.2478e-05,5.4e-05,0,5.4836e-05,2.3274e-06,-7.5174e-21,0,1.2691,0.036565,0.050753,0.050753,1,0.054,1,0.05,0
0.0081543,0.00036861,1.3424e-05,5.5e-05,0,5.5853e-05,2.3705e-06,-7.7292e-21,0,1.2926,0.037242,0.051693,0.051693,1,0.055,1,0.05,0
0.0083027,0.00037533,1.4436e-05,5.6e-05,0,5.687e-05,2.4135e-06,-7.8351e-21,0,1.3162,0.037918,0.052633,0.052633,1,0.056,1,0.05,0
0.008451,0.00038203,1.5504e-05,5.7e-05,0,5.7886e-05,2.4567e-06,-8.0468e-21,0,1.3397,0.038595,0.053573,0.053573,1,0.057,1,0.05,0
0.008599,0.0003887,1.6615e-05,5.8e-05,0,5.8902e-05,2.4998e-06,-8.0468e-21,0,1.3632,0.039272,0.054512,0.054512,1,0.058,1,0.05,0
0.0087472,0.0003954,1.7786e-05,5.9e-05,0,5.9918e-05,2.5429e-06,-8.3645e-21,0,1.3867,0.039948,0.055452,0.055452,1,0.059,1,0.05,0
0.0088955,0.00040209,1.9018e-05,6e-05,0,6.0935e-05,2.586e-06,-8.4703e-21,0,1.4102,0.040625,0.056392,0.056392,1,0.06,1,0.05,0
0.0090439,0.00040882,2.0328e-05,6.1e-05,0,6.1953e-05,2.6291e-06,-8.6821e-21,0,1.4337,0.041301,0.057332,0.057332,1,0.061,1,0.05,0
0.0091921,0.00041551,2.1705e-05,6.2e-05,0,6.2969e-05,2.6722e-06,-8.788e-21,0,1.4572,0.041978,0.058272,0.058272,1,0.062,1,0.05,0
0.0093401,0.00042217,2.3133e-05,6.3e-05,0,6.3985e-05,2.7153e-06,-9.1056e-21,0,1.4806,0.042654,0.05921,0.05921,1,0.063,1,0.05,0
0.0094883,0.00042886,2.4631e-05,6.4e-05,0,6.5001e-05,2.7585e-06,-8.9997e-21,0,1.5041,0.04333,0.06015,0.06015,1,0.064,1,0.05,0
0.0096365,0.00043555,2.62e-05,6.5e-05,0,6.6019e-05,2.8016e-06,-9.1056e-21,0,1.5276,0.044007,0.061089,0.061089,1,0.065,1,0.05,0
0.0097849,0.00044227,2.7864e-05,6.6e-05,0,6.7037e-05,2.8447e-06,-9.5291e-21,0,1.5511,0.044682,0.06203,0.06203,1,0.066,1,0.05,0
0.0099331,0.00044896,2.9605e-05,6.7e-05,0,6.8054e-05,2.8878e-06,-9.4232e-21,0,1.5746,0.045358,0.062969,0.062969,1,0.067,1,0.05,0
0.010081,0.00045561,3.1404e-05,6.8e-05,0,6.9069e-05,2.9309e-06,-9.635e-21,0,1.5981,0.046034,0.063906,0.063906,1,0.068,1,0.05,0
0.010229,0.00046229,3.3284e-05,6.9e-05,0,7.0086e-05,2.974e-06,-9.635e-21,0,1.6216,0.04671,0.064845,0.064845,1,0.069,1,0.05,0
0.010377,0.00046897,3.5247e-05,7e-05,0,7.1103e-05,3.0172e-06,-1.0164e-20,0,1.645,0.047386,0.065784,0.065784,1,0.07,1,0.05,0
0.010525,0.00047569,3.7322e-05,7.1e-05,0,7.2122e-05,3.0603e-06,-9.9526e-21,0,1.6685,0.048061,0.066724,0.066724,1,0.071,1,0.05,0
0.010673,0.00048237,3.9487e-05,7.2e-05,0,7.314e-05,3.1034e-06,-9.9526e-21,0,1.692,0.048736,0.067663,0.067663,1,0.072,1,0.05,0
0.010821,0.00048901,4.1716e-05,7.3e-05,0,7.4155e-05,3.1465e-06,-1.0164e-20,0,1.7154,0.049411,0.068599,0.068599,1,0.073,1,0.05,0
0.010969,0.00049568,4.4039e-05,7.4e-05,0,7.5173e-05,3.1896e-06,-1.0376e-20,0,1.7389,0.050086,0.069538,0.069538,1,0.074,1,0.05,0
0.011117,0.00050235,4.6457e-05,7.5e-05,0,7.619e-05,3.2328e-06,-1.0164e-20,0,1.7623,0.050761,0.070476,0.070476,1,0.075,1,0.05,0
0.011265,0.00050907,4.9007e-05,7.6e-05,0,7.721e-05,3.2759e-06,-1.0694e-20,0,1.7858,0.051436,0.071415,0.071415,1,0.076,1,0.05,0
0.011413,0.00051574,5.1658e-05,7.7e-05,0,7.8227e-05,3.319e-06,-1.08e-20,0,1.8093,0.052111,0.072353,0.072353,1,0.077,1,0.05,0
0.011561,0.00052235,5.4381e-05,7.8e-05,0,7.9243e-05,3.3622e-06,-1.08e-20,0,1.8327,0.052785,0.073288,0.073288,1,0.078,1,0.05,0
0.011709,0.00052902,5.7212e-05,7.9e-05,0,8.0261e-05,3.4053e-06,-1.1117e-20,0,1.8561,0.053459,0.074226,0.074226,1,0.079,1,0.05,0
0.011856,0.00053567,6.0151e-05,8e-05,0,8.1279e-05,3.4484e-06,-1.1011e-20,0,1.8795,0.054133,0.075162,0.075162,1,0.08,1,0.05,0
0.012005,0.00054238,6.3241e-05,8.1e-05,0,8.2299e-05,3.4915e-06,-1.1329e-20,0,1.903,0.054807,0.076101,0.076101,1,0.081,1,0.05,0
0.012152,0.00054904,6.6448e-05,8.2e-05,0,8.3317e-05,3.5347e-06,-1.1223e-20,0,1.9264,0.05548,0.077038,0.077037,1,0.082,1,0.05,0
0.012299,0.00055563,6.9733e-05,8.3e-05,0,8.4333e-05,3.5778e-06,-1.1541e-20,0,1.9498,0.056153,0.077971,0.077971,1,0.083,1,0.05,0
0.012447,0.00056227,7.314e-05,8.4e-05,0,8.5351e-05,3.6209e-06,-1.207e-20,0,1.9732,0.056826,0.078907,0.078907,1,0.084,1,0.05,0
0.012595,0.00056891,7.667e-05,8.5e-05,0,8.6369e-05,3.6641e-06,-1.1858e-20,0,1.9966,0.057499,0.079843,0.079842,1,0.085,1,0.05,0
0.012743,0.00057561,8.0374e-05,8.6e-05,0,8.739e-05,3.7072e-06,-1.2388e-20,0,2.02,0.058172,0.08078,0.08078,1,0.086,1,0.05,0
0.01289,0.00058225,8.4207e-05,8.7e-05,0,8.8409e-05,3.7503e-06,-1.2388e-20,0,2.0434,0.058844,0.081715,0.081715,1,0.087,1,0.05,0
0.013037,0.00058881,8.8126e-05,8.8e-05,0,8.9425e-05,3.7935e-06,-1.2388e-20,0,2.0667,0.059515,0.082647,0.082646,1,0.088,1,0.05,0
0.013184,0.00059543,9.2183e-05,8.9e-05,0,9.0443e-05,3.8366e-06,-1.2494e-20,0,2.0901,0.060187,0.08358,0.08358,1,0.089,1,0.05,0
0.013331,0.00060205,9.6378e-05,9e-05,0,9.1462e-05,3.8798e-06,-1.3129e-20,0,2.1134,0.060858,0.084514,0.084514,1,0.09,1,0.05,0
0.013479,0.00060867,0.00010072,9.1e-05,0,9.2481e-05,3.9229e-06,-1.2917e-20,0,2.1367,0.061529,0.085447,0.085447,1,0.091,1,0.05,0
0.013626,0.00061535,0.00010526,9.2e-05,0,9.3503e-05,3.9661e-06,-1.2917e-20,0,2.1601,0.062199,0.086382,0.086382,1,0.092,1,0.05,0
0.013773,0.00062195,0.00010994,9.3e-05,0,9.4522e-05,4.0092e-06,-1.3553e-20,0,2.1834,0.062869,0.087314,0.087314,1,0.093,1,0.05,0
0.01392,0.00062847,0.00011473,9.4e-05,0,9.5538e-05,4.0524e-06,-1.3341e-20,0,2.2067,0.063539,0.088243,0.088243,1,0.094,1,0.05,0
0.014067,0.00063506,0.00011966,9.5e-05,0,9.6557e-05,4.0955e-06,-1.2917e-20,0,2.2299,0.064208,0.089174,0.089174,1,0.095,1,0.05,0
0.014213,0.00064165,0.00012476,9.6e-05,0,9.7577e-05,4.1387e-06,-1.3764e-20,0,2.2532,0.064877,0.090105,0.090105,1,0.096,1,0.05,0
0.01436,0.00064823,0.00013002,9.7e-05,0,9.8596e-05,4.1818e-06,-1.3764e-20,0,2.2765,0.065545,0.091035,0.091035,1,0.097,1,0.05,0
0.014507,0.00065488,0.00013551,9.8e-05,0,9.9619e-05,4.225e-06,-1.3764e-20,0,2.2998,0.066213,0.091967,0.091967,1,0.098,1,0.05,0
0.014654,0.00066145,0.00014117,9.9e-05,0,0.00010064,4.2682e-06,-1.3553e-20,0,2.323,0.066881,0.092896,0.092896,1,0.099,1,0.05,0
0.014799,0.00066792,0.00014694,0.0001,0,0.00010166,4.3113e-06,-1.3976e-20,0,2.3461,0.067547,0.09382,0.09382,1,0.1,1,0.05,0
0.014946,0.00067447,0.00015288,0.000101,0,0.00010268,4.3545e-06,-1.3976e-20,0,2.3693,0.068214,0.094748,0.094747,1,0.101,1,0.05,0
0.015092,0.000681,0.000159,0.000102,0,0.0001037,4.3976e-06,-1.4611e-20,0,2.3925,0.068879,0.095674,0.095674,1,0.102,1,0.05,0
0.015238,0.00068754,0.0001653,0.000103,0,0.00010472,4.4408e-06,-1.4188e-20,0,2.4156,0.069544,0.0966,0.096599,1,0.103,1,0.05,0
0.015384,0.00069406,0.00017179,0.000104,0,0.00010574,4.484e-06,-1.4611e-20,0,2.4387,0.070209,0.097525,0.097525,1,0.104,1,0.05,0
0.01553,0.00070067,0.00017855,0.000105,0,0.00010676,4.5272e-06,-1.4611e-20,0,2.4619,0.070873,0.098452,0.098452,1,0.105,1,0.05,0
0.015676,0.00070717,0.0001855,0.000106,0,0.00010778,4.5703e-06,-1.4823e-20,0,2.485,0.071536,0.099375,0.099375,1,0.106,1,0.05,0
0.015821,0.00071357,0.00019257,0.000107,0,0.0001088,4.6135e-06,-1.5035e-20,0,2.508,0.072198,0.10029,0.10029,1,0.107,1,0.05,0
0.015966,0.00072005,0.00019984,0.000108,0,0.00010982,4.6567e-06,-1.4823e-20,0,2.531,0.07286,0.10122,0.10122,1,0.108,1,0.05,0
0.016111,0.00072653,0.00020731,0.000109,0,0.00011084,4.6999e-06,-1.5458e-20,0,2.5541,0.073521,0.10214,0.10214,1,0.109,1,0.05,0
0.016256,0.00073299,0.000215,0.00011,0,0.00011186,4.7431e-06,-1.5458e-20,0,2.577,0.074182,0.10306,0.10306,1,0.11,1,0.05,0
0.016401,0.00073944,0.00022289,0.000111,0,0.00011288,4.7862e-06,-1.5882e-20,0,2.6,0.074841,0.10397,0.10397,1,0.111,1,0.05,0
0.016546,0.00074588,0.000231,0.000112,0,0.0001139,4.8294e-06,-1.6094e-20,0,2.6229,0.0755,0.10489,0.10489,1,0.112,1,0.05,0
0.01669,0.0007523,0.00023933,0.000113,0,0.00011492,4.8726e-06,-1.6094e-20,0,2.6459,0.076158,0.10581,0.10581,1,0.113,1,0.05,0
0.016834,0.00075872,0.00024788,0.000114,0,0.00011595,4.9158e-06,-1.567e-20,0,2.6687,0.076814,0.10672,0.10672,1,0.114,1,0.05,0
0.016978,0.00076511,0.00025666,0.000115,0,0.00011697,4.959e-06,-1.5882e-20,0,2.6916,0.07747,0.10764,0.10764,1,0.115,1,0.05,0
0.017122,0.0007715,0.00026567,0.000116,0,0.00011799,5.0022e-06,-1.6094e-20,0,2.7144,0.078125,0.10855,0.10855,1,0.116,1,0.05,0
0.017266,0.00077787,0.00027492,0.000117,0,0.00011901,5.0454e-06,-1.6729e-20,0,2.7372,0.07878,0.10946,0.10946,1,0.117,1,0.05,0
0.01741,0.00078423,0.0002844,0.000118,0,0.00012003,5.0887e-06,-1.6941e-20,0,2.7599,0.079433,0.11037,0.11037,1,0.118,1,0.05,0
0.017553,0.00079057,0.00029413,0.000119,0,0.00012106,5.1319e-06,-1.6517e-20,0,2.7826,0.080085,0.11128,0.11128,1,0.119,1,0.05,0
0.017696,0.00079689,0.00030411,0.00012,0,0.00012208,5.1751e-06,-1.6729e-20,0,2.8053,0.080735,0.11218,0.11218,1,0.12,1,0.05,0
0.017839,0.0008032,0.00031434,0.000121,0,0.0001231,5.2183e-06,-1.7152e-20,0,2.828,0.081385,0.11309,0.11309,1,0.121,1,0.05,0
0.017981,0.0008095,0.00032482,0.000122,0,0.00012412,5.2615e-06,-1.7152e-20,0,2.8506,0.082034,0.11399,0.11399,1,0.122,1,0.05,0
0.018123,0.00081577,0.00033557,0.000123,0,0.00012515,5.3047e-06,-1.7364e-20,0,2.8731,0.082682,0.11489,0.11489,1,0.123,1,0.05,0
0.018265,0.00082203,0.00034657,0.000124,0,0.00012617,5.348e-06,-1.6941e-20,0,2.8956,0.083328,0.11579,0.11579,1,0.124,1,0.05,0
0.018407,0.00082826,0.00035785,0.000125,0,0.00012719,5.3912e-06,-1.7364e-20,0,2.9181,0.083973,0.11669,0.11669,1,0.125,1,0.05,0
0.018549,0.00083448,0.0003694,0.000126,0,0.00012822,5.4344e-06,-1.7576e-20,0,2.9405,0.084616,0.11759,0.11759,1,0.126,1,0.05,0
0.01869,0.00084068,0.00038123,0.000127,0,0.00012924,5.4777e-06,-1.8211e-20,0,2.9629,0.085259,0.11849,0.11849,1,0.127,1,0.05,0
0.018831,0.00084686,0.00039334,0.000128,0,0.00013026,5.5209e-06,-1.7999e-20,0,2.9852,0.085899,0.11938,0.11938,1,0.128,1,0.05,0
0.018971,0.00085302,0.00040574,0.000129,0,0.00013129,5.5642e-06,-1.8423e-20,0,3.0075,0.086539,0.12027,0.12027,1,0.129,1,0.05,0
0.019111,0.00085915,0.00041843,0.00013,0,0.00013231,5.6074e-06,-1.8423e-20,0,3.0298,0.087177,0.12116,0.12116,1,0.13,1,0.05,0
0.019248,0.00086467,0.00043123,0.000131,0,0.00013332,5.6501e-06,-1.8423e-20,0,3.0515,0.087804,0.12203,0.12203,1,0.131,1,0.05,0
0.019387,0.00087074,0.00044435,0.000132,0,0.00013434,5.6934e-06,-1.8211e-20,0,3.0737,0.088438,0.12291,0.12291,1,0.132,1,0.05,0
0.019526,0.00087678,0.00045776,0.000133,0,0.00013537,5.7366e-06,-1.8211e-20,0,3.0957,0.089071,0.1238,0.1238,1,0.133,1,0.05,0
0.019665,0.00088279,0.00047148,0.000134,0,0.00013639,5.7799e-06,-1.927e-20,0,3.1177,0.089702,0.12468,0.12468,1,0.134,1,0.05,0
0.019803,0.00088877,0.0004855,0.000135,0,0.00013741,5.8231e-06,-1.8635e-20,0,3.1396,0.090332,0.12555,0.12555,1,0.135,1,0.05,0
0.019941,0.00089473,0.00049984,0.000136,0,0.00013844,5.8664e-06,-1.9905e-20,0,3.1615,0.090959,0.12643,0.12643,1,0.136,1,0.05,0
0.020079,0.00090065,0.00051449,0.000137,0,0.00013946,5.9096e-06,-1.927e-20,0,3.1833,0.091585,0.1273,0.1273,1,0.137,1,0.05,0
0.020216,0.00090654,0.00052946,0.000138,0,0.00014049,5.9529e-06,-1.9058e-20,0,3.205,0.092208,0.12817,0.12817,1,0.138,1,0.05,0
0.020352,0.0009124,0.00054475,0.000139,0,0.00014151,5.9961e-06,-1.9482e-20,0,3.2267,0.09283,0.12904,0.12903,1,0.139,1,0.05,0
0.020488,0.00091822,0.00056038,0.00014,0,0.00014253,6.0394e-06,-2.0117e-20,0,3.2483,0.093449,0.1299,0.1299,1,0.14,1,0.05,0
0.020624,0.00092401,0.00057634,0.000141,0,0.00014356,6.0826e-06,-2.0117e-20,0,3.2698,0.094067,0.13076,0.13076,1,0.141,1,0.05,0
0.020759,0.00092976,0.00059263,0.000142,0,0.00014458,6.1259e-06,-2.0117e-20,0,3.2913,0.094682,0.13162,0.13162,1,0.142,1,0.05,0
0.020894,0.00093548,0.00060927,0.000143,0,0.00014561,6.1691e-06,-2.0541e-20,0,3.3126,0.095295,0.13247,0.13247,1,0.143,1,0.05,0
0.021028,0.00094116,0.00062626,0.000144,0,0.00014663,6.2124e-06,-2.0752e-20,0,3.3339,0.095906,0.13332,0.13332,1,0.144,1,0.05,0
0.021161,0.0009468,0.0006436,0.000145,0,0.00014766,6.2557e-06,-2.0329e-20,0,3.3551,0.096514,0.13417,0.13417,1,0.145,1,0.05,0
0.021294,0.0009524,0.00066129,0.000146,0,0.00014868,6.2989e-06,-2.0329e-20,0,3.3763,0.09712,0.13502,0.13502,1,0.146,1,0.05,0
0.021427,0.00095796,0.00067935,0.000147,0,0.00014971,6.3422e-06,-2.0329e-20,0,3.3973,0.097724,0.13586,0.13586,1,0.147,1,0.05,0
0.021559,0.00096348,0.00069778,0.000148,0,0.00015073,6.3855e-06,-2.0117e-20,0,3.4182,0.098325,0.13669,0.13669,1,0.148,1,0.05,0
0.02169,0.00096895,0.00071658,0.000149,0,0.00015176,6.4287e-06,-2.1176e-20,0,3.4391,0.098923,0.13753,0.13753,1,0.149,1,0.05,0
0.021821,0.00097438,0.00073576,0.00015,0,0.00015278,6.472e-06,-2.1176e-20,0,3.4599,0.099519,0.13836,0.13836,1,0.15,1,0.05,0
0.021951,0.00097976,0.00075532,0.000151,0,0.00015381,6.5153e-06,-2.1599e-20,0,3.4805,0.10011,0.13919,0.13918,1,0.151,1,0.05,0
0.022081,0.0009851,0.00077527,0.000152,0,0.00015483,6.5586e-06,-2.0752e-20,0,3.5011,0.1007,0.14001,0.14001,1,0.152,1,0.05,0
0.022209,0.00099039,0.00079562,0.000153,0,0.00015586,6.6019e-06,-2.0752e-20,0,3.5216,0.10129,0.14083,0.14083,1,0.153,1,0.05,0
0.022338,0.00099563,0.00081636,0.000154,0,0.00015688,6.6451e-06,-2.1599e-20,0,3.5419,0.10187,0.14164,0.14164,1,0.154,1,0.05,0
0.022465,0.0010008,0.00083749,0.000155,0,0.00015791,6.6884e-06,-2.1811e-20,0,3.5622,0.10245,0.14245,0.14245,1,0.155,1,0.05,0
0.022592,0.001006,0.00085905,0.000156,0,0.00015893,6.7317e-06,-2.2023e-20,0,3.5823,0.10303,0.14326,0.14326,1,0.156,1,0.05,0
0.022718,0.001011,0.00088101,0.000157,0,0.00015996,6.775e-06,-2.2023e-20,0,3.6023,0.10361,0.14406,0.14406,1,0.157,1,0.05,0
0.022843,0.0010161,0.00090339,0.000158,0,0.00016099,6.8183e-06,-2.2446e-20,0,3.6222,0.10418,0.14485,0.14485,1,0.158,1,0.05,0
0.022968,0.001021,0.0009262,0.000159,0,0.00016201,6.8616e-06,-2.287e-20,0,3.642,0.10475,0.14564,0.14564,1,0.159,1,0.05,0
0.023092,0.0010259,0.00094944,0.00016,0,0.00016304,6.9049e-06,-2.2658e-20,0,3.6617,0.10531,0.14643,0.14643,1,0.16,1,0.05,0
0.023215,0.0010308,0.00097311,0.000161,0,0.00016406,6.9482e-06,-2.2446e-20,0,3.6813,0.10587,0.14721,0.14721,1,0.161,1,0.05,0
0.023337,0.0010356,0.00099722,0.000162,0,0.00016509,6.9916e-06,-2.2446e-20,0,3.7007,0.10643,0.14799,0.14799,1,0.162,1,0.05,0
0.023458,0.0010403,0.0010218,0.000163,0,0.00016611,7.0349e-06,-2.3293e-20,0,3.72,0.10699,0.14876,0.14876,1,0.163,1,0.05,0
0.023578,0.001045,0.0010468,0.000164,0,0.00016714,7.0782e-06,-2.3717e-20,0,3.7391,0.10754,0.14953,0.14953,1,0.164,1,0.05,0
0.023698,0.0010496,0.0010723,0.000165,0,0.00016817,7.1216e-06,-2.3717e-20,0,3.7582,0.10809,0.15029,0.15029,1,0.165,1,0.05,0
0.023817,0.0010542,0.0010982,0.000166,0,0.00016919,7.1649e-06,-2.3082e-20,0,3.7771,0.10863,0.15104,0.15104,1,0.166,1,0.05,0
0.023935,0.0010586,0.0011246,0.000167,0,0.00017022,7.2082e-06,-2.3293e-20,0,3.7958,0.10917,0.15179,0.15179,1,0.167,1,0.05,0
0.024051,0.001063,0.0011514,0.000168,0,0.00017124,7.2516e-06,-2.3717e-20,0,3.8144,0.1097,0.15254,0.15254,1,0.168,1,0.05,0
0.024167,0.0010674,0.0011788,0.000169,0,0.00017227,7.295e-06,-2.3505e-20,0,3.8329,0.11023,0.15328,0.15327,1,0.169,1,0.05,0
0.024282,0.0010716,0.0012066,0.00017,0,0.00017329,7.3383e-06,-2.3717e-20,0,3.8512,0.11076,0.15401,0.15401,1,0.17,1,0.05,0
0.024396,0.0010758,0.0012349,0.000171,0,0.00017432,7.3817e-06,-2.4352e-20,0,3.8693,0.11128,0.15473,0.15473,1,0.171,1,0.05,0
0.024509,0.0010799,0.0012638,0.000172,0,0.00017535,7.4251e-06,-2.4352e-20,0,3.8873,0.1118,0.15545,0.15545,1,0.172,1,0.05,0
0.024621,0.001084,0.0012931,0.000173,0,0.00017637,7.4685e-06,-2.414e-20,0,3.9051,0.11232,0.15617,0.15616,1,0.173,1,0.05,0
0.024732,0.0010879,0.0013229,0.000174,0,0.0001774,7.5119e-06,-2.4564e-20,0,3.9228,0.11283,0.15687,0.15687,1,0.174,1,0.05,0
0.024842,0.0010918,0.0013533,0.000175,0,0.00017842,7.5554e-06,-2.4564e-20,0,3.9402,0.11333,0.15757,0.15757,1,0.175,1,0.05,0
0.02495,0.0010956,0.0013841,0.000176,0,0.00017945,7.5988e-06,-2.4564e-20,0,3.9576,0.11383,0.15826,0.15826,1,0.176,1,0.05,0
0.025058,0.0010993,0.0014155,0.000177,0,0.00018048,7.6423e-06,-2.5411e-20,0,3.9747,0.11433,0.15895,0.15895,1,0.177,1,0.05,0
0.025164,0.0011029,0.0014474,0.000178,0,0.0001815,7.6857e-06,-2.5411e-20,0,3.9917,0.11482,0.15963,0.15962,1,0.178,1,0.05,0
0.025269,0.0011065,0.0014799,0.000179,0,0.00018253,7.7292e-06,-2.6258e-20,0,4.0084,0.1153,0.1603,0.1603,1,0.179,1,0.05,0
0.025359,0.0011065,0.0015123,0.00018,0,0.0001835,7.7736e-06,-2.4987e-20,0,4.0238,0.1158,0.16091,0.16091,1,0.18,1,0.05,0
0.025447,0.001106,0.0015449,0.000181,0,0.00018447,7.8167e-06,-2.6258e-20,0,4.0389,0.11627,0.16152,0.16151,1,0.181,1,0.05,0
0.025548,0.001109,0.0015778,0.000182,0,0.00018549,7.8603e-06,-2.5835e-20,0,4.055,0.11674,0.16216,0.16216,1,0.182,1,0.05,0
0.025647,0.0011119,0.0016112,0.000183,0,0.00018651,7.9042e-06,-2.7105e-20,0,4.071,0.11721,0.1628,0.1628,1,0.183,1,0.05,0
0.025745,0.0011146,0.0016451,0.000184,0,0.00018753,7.9482e-06,-2.5835e-20,0,4.0867,0.11768,0.16343,0.16343,1,0.184,1,0.05,0
0.025841,0.0011171,0.0016796,0.000185,0,0.00018855,7.9925e-06,-2.6258e-20,0,4.1023,0.11814,0.16405,0.16405,1,0.185,1,0.05,0
0.025936,0.0011194,0.0017147,0.000186,0,0.00018957,8.037e-06,-2.6258e-20,0,4.1176,0.1186,0.16466,0.16466,1,0.186,1,0.05,0
0.02603,0.0011216,0.0017502,0.000187,0,0.0001906,8.0816e-06,-2.6682e-20,0,4.1327,0.11906,0.16527,0.16527,1,0.187,1,0.05,0
0.026121,0.0011236,0.0017864,0.000188,0,0.00019162,8.1265e-06,-2.6258e-20,0,4.1476,0.11952,0.16586,0.16586,1,0.188,1,0.05,0
0.026212,0.0011254,0.001823,0.000189,0,0.00019264,8.1716e-06,-2.6258e-20,0,4.1623,0.11998,0.16645,0.16645,1,0.189,1,0.05,0
0.0263,0.001127,0.0018603,0.00019,0,0.00019366,8.2169e-06,-2.6682e-20,0,4.1767,0.12043,0.16703,0.16703,1,0.19,1,0.05,0
0.026388,0.0011284,0.0018981,0.000191,0,0.00019468,8.2624e-06,-2.6682e-20,0,4.191,0.12087,0.1676,0.1676,1,0.191,1,0.05,0
0.026473,0.0011297,0.0019365,0.000192,0,0.0001957,8.3081e-06,-2.7529e-20,0,4.205,0.12132,0.16816,0.16815,1,0.192,1,0.05,0
0.026557,0.0011307,0.001975,0.000193,0,0.00019672,8.3542e-06,-2.7529e-20,0,4.2187,0.12176,0.16871,0.1687,1,0.193,1,0.05,0
0.026639,0.0011315,0.0020141,0.000194,0,0.00019774,8.4008e-06,-2.6682e-20,0,4.2323,0.12221,0.16925,0.16925,1,0.194,1,0.05,0
0.026719,0.0011321,0.0020538,0.000195,0,0.00019876,8.4478e-06,-2.7952e-20,0,4.2456,0.12265,0.16978,0.16978,1,0.195,1,0.05,0
0.026798,0.0011324,0.0020941,0.000196,0,0.00019978,8.4953e-06,-2.8376e-20,0,4.2587,0.1231,0.17031,0.1703,1,0.196,1,0.05,0
0.026875,0.0011325,0.0021349,0.000197,0,0.00020081,8.5432e-06,-2.7529e-20,0,4.2715,0.12354,0.17082,0.17082,1,0.197,1,0.05,0
0.02695,0.0011324,0.0021764,0.000198,0,0.00020183,8.5916e-06,-2.7952e-20,0,4.2842,0.12399,0.17133,0.17132,1,0.198,1,0.05,0
0.027024,0.001132,0.0022184,0.000199,0,0.00020286,8.6405e-06,-2.7529e-20,0,4.2965,0.12443,0.17182,0.17182,1,0.199,1,0.05,0
0.027096,0.0011314,0.0022611,0.0002,0,0.00020388,8.6898e-06,-2.8376e-20,0,4.3087,0.12488,0.17231,0.1723,1,0.2,1,0.05,0
0.027166,0.0011306,0.0023044,0.000201,0,0.00020491,8.7397e-06,-2.8799e-20,0,4.3205,0.12532,0.17278,0.17278,1,0.201,1,0.05,0
0.027234,0.0011294,0.0023483,0.000202,0,0.00020593,8.7901e-06,-2.8799e-20,0,4.3322,0.12576,0.17325,0.17324,1,0.202,1,0.05,0
0.0273,0.0011281,0.0023929,0.000203,0,0.00020696,8.8409e-06,-2.8799e-20,0,4.3435,0.12621,0.1737,0.1737,1,0.203,1,0.05,0
0.027364,0.0011265,0.0024381,0.000204,0,0.00020799,8.8924e-06,-2.8376e-20,0,4.3546,0.12665,0.17414,0.17414,1,0.204,1,0.05,0
0.027426,0.0011246,0.0024839,0.000205,0,0.00020902,8.9443e-06,-2.8799e-20,0,4.3655,0.1271,0.17458,0.17457,1,0.205,1,0.05,0
0.027486,0.0011224,0.0025304,0.000206,0,0.00021005,8.9968e-06,-2.8376e-20,0,4.376,0.12754,0.175,0.175,1,0.206,1,0.05,0
0.027545,0.00112,0.0025775,0.000207,0,0.00021108,9.0499e-06,-2.9223e-20,0,4.3863,0.12799,0.17541,0.17541,1,0.207,1,0.05,0
0.027601,0.0011173,0.0026253,0.000208,0,0.0002121,9.1035e-06,-2.8799e-20,0,4.3963,0.12843,0.17581,0.17581,1,0.208,1,0.05,0
0.027655,0.0011144,0.0026738,0.000209,0,0.00021313,9.1577e-06,-2.9646e-20,0,4.406,0.12888,0.1762,0.17619,1,0.209,1,0.05,0
0.027707,0.0011111,0.0027229,0.00021,0,0.00021417,9.2125e-06,-3.007e-20,0,4.4154,0.12932,0.17658,0.17657,1,0.21,1,0.05,0
0.027757,0.0011076,0.0027727,0.000211,0,0.0002152,9.2679e-06,-3.007e-20,0,4.4245,0.12977,0.17694,0.17694,1,0.211,1,0.05,0
0.027805,0.0011038,0.0028232,0.000212,0,0.00021623,9.3239e-06,-3.0917e-20,0,4.4334,0.13021,0.17729,0.17729,1,0.212,1,0.05,0
0.02785,0.0010997,0.0028744,0.000213,0,0.00021726,9.3806e-06,-3.0917e-20,0,4.4419,0.13066,0.17763,0.17763,1,0.213,1,0.05,0
0.027894,0.0010954,0.0029264,0.000214,0,0.00021829,9.4378e-06,-3.0493e-20,0,4.4501,0.1311,0.17796,0.17796,1,0.214,1,0.05,0
0.027935,0.0010907,0.002979,0.000215,0,0.00021933,9.4957e-06,-3.0917e-20,0,4.458,0.13155,0.17828,0.17827,1,0.215,1,0.05,0
0.027974,0.0010857,0.0030323,0.000216,0,0.00022036,9.5543e-06,-3.0917e-20,0,4.4656,0.132,0.17858,0.17858,1,0.216,1,0.05,0
0.02798,0.001077,0.0030853,0.000217,0,0.00022121,9.6169e-06,-3.134e-20,0,4.4687,0.1325,0.1787,0.1787,1,0.217,1,0.05,0
0.027983,0.0010678,0.0031385,0.000218,0,0.00022205,9.6755e-06,-3.134e-20,0,4.4713,0.13292,0.17881,0.17881,1,0.218,1,0.05,0
0.028014,0.0010618,0.0031929,0.000219,0,0.00022307,9.736e-06,-3.1764e-20,0,4.4776,0.13337,0.17906,0.17906,1,0.219,1,0.05,0
0.028043,0.0010556,0.0032479,0.00022,0,0.00022409,9.7973e-06,-3.2187e-20,0,4.4835,0.13382,0.1793,0.17929,1,0.22,1,0.05,0
0.02807,0.001049,0.0033037,0.000221,0,0.00022511,9.8593e-06,-3.2187e-20,0,4.489,0.13426,0.17951,0.17951,1,0.221,1,0.05,0
0.028094,0.0010422,0.0033602,0.000222,0,0.00022612,9.922e-06,-3.2187e-20,0,4.4939,0.13471,0.17971,0.17971,1,0.222,1,0.05,0
0.028116,0.0010349,0.0034175,0.000223,0,0.00022714,9.9854e-06,-3.2611e-20,0,4.4984,0.13515,0.17989,0.17989,1,0.223,1,0.05,0
0.028135,0.0010274,0.0034755,0.000224,0,0.00022815,1.005e-05,-3.2611e-20,0,4.5025,0.13559,0.18005,0.18005,1,0.224,1,0.05,0
0.028151,0.0010195,0.0035343,0.000225,0,0.00022915,1.0115e-05,-3.2611e-20,0,4.506,0.13603,0.18019,0.18019,1,0.225,1,0.05,0
0.028165,0.0010114,0.0035938,0.000226,0,0.00023016,1.018e-05,-3.3458e-20,0,4.5091,0.13647,0.18031,0.18032,1,0.226,1,0.05,0
0.028177,0.0010028,0.0036541,0.000227,0,0.00023116,1.0247e-05,-3.3034e-20,0,4.5118,0.13691,0.18041,0.18042,1,0.227,1,0.05,0
0.028185,0.00099396,0.0037152,0.000228,0,0.00023216,1.0314e-05,-3.3458e-20,0,4.5139,0.13735,0.1805,0.18051,1,0.228,1,0.05,0
0.028192,0.00098477,0.0037771,0.000229,0,0.00023316,1.0382e-05,-3.3881e-20,0,4.5155,0.13779,0.18056,0.18057,1,0.229,1,0.05,0
0.028195,0.00097525,0.0038398,0.00023,0,0.00023415,1.0451e-05,-3.3881e-20,0,4.5167,0.13823,0.18061,0.18062,1,0.23,1,0.05,0
0.028196,0.0009654,0.0039033,0.000231,0,0.00023514,1.0521e-05,-3.5152e-20,0,4.5174,0.13867,0.18063,0.18065,1,0.231,1,0.05,0
0.028194,0.00095522,0.0039676,0.000232,0,0.00023613,1.0591e-05,-3.5152e-20,0,4.5176,0.1391,0.18064,0.18066,1,0.232,1,0.05,0
0.02819,0.0009447,0.0040328,0.000233,0,0.00023712,1.0663e-05,-3.4728e-20,0,4.5173,0.13954,0.18062,0.18065,1,0.233,1,0.05,0
0.028183,0.00093386,0.0040988,0.000234,0,0.0002381,1.0735e-05,-3.3881e-20,0,4.5166,0.13997,0.18059,0.18061,1,0.234,1,0.05,0
0.028173,0.00092268,0.0041657,0.000235,0,0.00023908,1.0808e-05,-3.5575e-20,0,4.5153,0.14041,0.18054,0.18056,1,0.235,1,0.05,0
0.02816,0.00091118,0.0042333,0.000236,0,0.00024006,1.0883e-05,-3.5575e-20,0,4.5135,0.14084,0.18046,0.18049,1,0.236,1,0.05,0
0.028145,0.00089935,0.0043019,0.000237,0,0.00024103,1.0958e-05,-3.5575e-20,0,4.5113,0.14128,0.18037,0.1804,1,0.237,1,0.05,0
0.028127,0.00088719,0.0043714,0.000238,0,0.000242,1.1034e-05,-3.5575e-20,0,4.5086,0.14171,0.18026,0.18029,1,0.238,1,0.05,0
0.028106,0.00087471,0.0044417,0.000239,0,0.00024297,1.1111e-05,-3.5999e-20,0,4.5053,0.14214,0.18012,0.18017,1,0.239,1,0.05,0
0.028083,0.00086191,0.004513,0.00024,0,0.00024393,1.1189e-05,-3.5999e-20,0,4.5016,0.14258,0.17997,0.18002,1,0.24,1,0.05,0
0.028057,0.00084879,0.0045853,0.000241,0,0.00024489,1.1268e-05,-3.6846e-20,0,4.4974,0.14301,0.1798,0.17985,1,0.241,1,0.05,0
0.028028,0.00083535,0.0046584,0.000242,0,0.00024585,1.1348e-05,-3.7269e-20,0,4.4928,0.14345,0.17961,0.17966,1,0.242,1,0.05,0
0.027996,0.0008216,0.0047325,0.000243,0,0.0002468,1.1429e-05,-3.7269e-20,0,4.4876,0.14388,0.17939,0.17945,1,0.243,1,0.05,0
0.027961,0.00080753,0.0048076,0.000244,0,0.00024775,1.1511e-05,-3.8116e-20,0,4.4819,0.14431,0.17916,0.17923,1,0.244,1,0.05,0
0.027924,0.00079315,0.0048836,0.000245,0,0.00024869,1.1594e-05,-3.8964e-20,0,4.4758,0.14475,0.17891,0.17898,1,0.245,1,0.05,0
0.027884,0.00077848,0.0049598,0.000246,0,0.00024963,1.1678e-05,-3.8964e-20,0,4.4691,0.14518,0.17864,0.17872,1,0.246,1,0.05,0
0.027841,0.00076354,0.005037,0.000247,0,0.00025057,1.1763e-05,-3.7269e-20,0,4.462,0.14562,0.17834,0.17843,1,0.247,1,0.05,0
0.027795,0.00074833,0.0051152,0.000248,0,0.0002515,1.1849e-05,-3.9811e-20,0,4.4544,0.14605,0.17803,0.17813,1,0.248,1,0.05,0
0.027747,0.00073285,0.0051944,0.000249,0,0.00025243,1.1936e-05,-3.854e-20,0,4.4463,0.14648,0.1777,0.1778,1,0.249,1,0.05,0
0.027696,0.00071711,0.0052746,0.00025,0,0.00025335,1.2024e-05,-3.9811e-20,0,4.4377,0.14691,0.17735,0.17746,1,0.25,1,0.05,0
0.027642,0.00070112,0.0053549,0.000251,0,0.00025427,1.2113e-05,-3.9811e-20,0,4.4287,0.14734,0.17698,0.1771,1,0.251,1,0.05,0
0.027585,0.00068492,0.0054363,0.000252,0,0.00025518,1.2203e-05,-3.9811e-20,0,4.4191,0.14776,0.17658,0.17671,1,0.252,1,0.05,0
0.027525,0.0006685,0.0055186,0.000253,0,0.00025609,1.2294e-05,-3.8964e-20,0,4.4091,0.14819,0.17617,0.17631,1,0.253,1,0.05,0
0.027463,0.00065187,0.005602,0.000254,0,0.00025699,1.2386e-05,-4.0234e-20,0,4.3986,0.14861,0.17574,0.17589,1,0.254,1,0.05,0
0.027398,0.00063502,0.0056865,0.000255,0,0.00025788,1.2479e-05,-4.0658e-20,0,4.3876,0.14902,0.17529,0.17545,1,0.255,1,0.05,0
0.02733,0.00061798,0.005772,0.000256,0,0.00025877,1.2573e-05,-4.2352e-20,0,4.3761,0.14944,0.17482,0.17499,1,0.256,1,0.05,0
0.027259,0.00060074,0.0058586,0.000257,0,0.00025966,1.2668e-05,-4.1505e-20,0,4.3642,0.14985,0.17432,0.17451,1,0.257,1,0.05,0
0.027186,0.00058331,0.0059463,0.000258,0,0.00026053,1.2764e-05,-4.1505e-20,0,4.3517,0.15026,0.17381,0.17402,1,0.258,1,0.05,0
0.02711,0.00056569,0.0060352,0.000259,0,0.0002614,1.286e-05,-4.1505e-20,0,4.3389,0.15066,0.17328,0.1735,1,0.259,1,0.05,0
0.027031,0.00054791,0.0061251,0.00026,0,0.00026226,1.2958e-05,-4.2775e-20,0,4.3255,0.15107,0.17273,0.17297,1,0.26,1,0.05,0
0.026949,0.00052995,0.0062162,0.000261,0,0.00026312,1.3057e-05,-4.2775e-20,0,4.3117,0.15147,0.17216,0.17241,1,0.261,1,0.05,0
0.026864,0.00051184,0.0063084,0.000262,0,0.00026397,1.3157e-05,-4.2775e-20,0,4.2975,0.15187,0.17158,0.17184,1,0.262,1,0.05,0
0.026777,0.00049358,0.0064018,0.000263,0,0.00026481,1.3258e-05,-4.4893e-20,0,4.2828,0.15226,0.17097,0.17126,1,0.263,1,0.05,0
0.026687,0.00047517,0.0064964,0.000264,0,0.00026565,1.336e-05,-4.3622e-20,0,4.2676,0.15265,0.17034,0.17065,1,0.264,1,0.05,0
0.026594,0.00045662,0.0065922,0.000265,0,0.00026647,1.3464e-05,-4.3622e-20,0,4.2521,0.15304,0.1697,0.17003,1,0.265,1,0.05,0
0.026499,0.00043796,0.0066892,0.000266,0,0.00026729,1.3568e-05,-4.4469e-20,0,4.2361,0.15343,0.16904,0.16938,1,0.266,1,0.05,0
0.026401,0.00041917,0.0067874,0.000267,0,0.00026811,1.3673e-05,-4.4469e-20,0,4.2196,0.15382,0.16836,0.16873,1,0.267,1,0.05,0
0.0263,0.00040028,0.0068869,0.000268,0,0.00026891,1.378e-05,-4.5316e-20,0,4.2028,0.1542,0.16766,0.16805,1,0.268,1,0.05,0
0.026197,0.00038129,0.0069877,0.000269,0,0.0002697,1.3888e-05,-4.4469e-20,0,4.1855,0.15458,0.16695,0.16736,1,0.269,1,0.05,0
0.026091,0.00036221,0.0070898,0.00027,0,0.00027049,1.3996e-05,-4.6163e-20,0,4.1679,0.15496,0.16621,0.16665,1,0.27,1,0.05,0
0.02585,0.00036999,0.0071896,0.000271,0,0.00026985,1.4104e-05,-4.6163e-20,0,4.1179,0.15531,0.16419,0.16466,1,0.271,1,0.05,0
0.02574,0.00035123,0.0072923,0.000272,0,0.00027059,1.4214e-05,-4.6587e-20,0,4.0996,0.15571,0.16343,0.16392,1,0.272,1,0.05,0
0.025628,0.00033254,0.0073964,0.000273,0,0.00027131,1.4327e-05,-4.574e-20,0,4.0811,0.15613,0.16267,0.16318,1,0.273,1,0.05,0
0.025515,0.00031394,0.0075019,0.000274,0,0.00027201,1.4441e-05,-4.7434e-20,0,4.0624,0.15657,0.16189,0.16243,1,0.274,1,0.05,0
0.0254,0.00029543,0.0076087,0.000275,0,0.0002727,1.4556e-05,-4.8281e-20,0,4.0434,0.15701,0.16111,0.16167,1,0.275,1,0.05,0
0.025283,0.00027704,0.0077169,0.000276,0,0.00027337,1.4672e-05,-4.9128e-20,0,4.0242,0.15747,0.16031,0.1609,1,0.276,1,0.05,0
0.025165,0.00025875,0.0078266,0.000277,0,0.00027402,1.479e-05,-4.8281e-20,0,4.0047,0.15795,0.15951,0.16012,1,0.277,1,0.05,0
0.025045,0.00024058,0.0079377,0.000278,0,0.00027466,1.4909e-05,-4.8704e-20,0,3.9849,0.15843,0.1587,0.15933,1,0.278,1,0.05,0
0.024923,0.00022253,0.0080502,0.000279,0,0.00027528,1.5029e-05,-4.8704e-20,0,3.965,0.15893,0.15787,0.15853,1,0.279,1,0.05,0
0.024799,0.0002046,0.0081642,0.00028,0,0.00027588,1.515e-05,-4.9128e-20,0,3.9448,0.15944,0.15704,0.15772,1,0.28,1,0.05,0
0.024674,0.00018681,0.0082797,0.000281,0,0.00027646,1.5273e-05,-4.9128e-20,0,3.9243,0.15997,0.1562,0.1569,1,0.281,1,0.05,0
0.024547,0.00016916,0.0083967,0.000282,0,0.00027702,1.5397e-05,-5.2516e-20,0,3.9036,0.16051,0.15535,0.15607,1,0.282,1,0.05,0
0.024419,0.00015165,0.0085153,0.000283,0,0.00027757,1.5522e-05,-5.1245e-20,0,3.8826,0.16106,0.15449,0.15523,1,0.283,1,0.05,0
0.024289,0.00013429,0.0086355,0.000284,0,0.0002781,1.5649e-05,-5.1245e-20,0,3.8614,0.16163,0.15362,0.15439,1,0.284,1,0.05,0
0.024157,0.00011709,0.0087573,0.000285,0,0.00027861,1.5777e-05,-4.9975e-20,0,3.84,0.16221,0.15274,0.15353,1,0.285,1,0.05,0
0.024024,0.00010005,0.0088806,0.000286,0,0.00027911,1.5906e-05,-5.2093e-20,0,3.8183,0.1628,0.15185,0.15266,1,0.286,1,0.05,0
0.023889,8.3185e-05,0.0090057,0.000287,0,0.00027958,1.6037e-05,-5.1669e-20,0,3.7964,0.16341,0.15095,0.15178,1,0.287,1,0.05,0
0.023753,6.6494e-05,0.0091325,0.000288,0,0.00028004,1.6169e-05,-5.0822e-20,0,3.7742,0.16403,0.15004,0.1509,1,0.288,1,0.05,0
0.023615,4.9987e-05,0.009261,0.000289,0,0.00028048,1.6303e-05,-5.294e-20,0,3.7518,0.16467,0.14912,0.15,1,0.289,1,0.05,0
0.023475,3.3668e-05,0.0093913,0.00029,0,0.0002809,1.6439e-05,-5.1669e-20,0,3.7292,0.16532,0.1482,0.14909,1,0.29,1,0.05,0
0.023334,1.7548e-05,0.0095234,0.000291,0,0.00028131,1.6575e-05,-5.3363e-20,0,3.7063,0.16599,0.14726,0.14818,1,0.291,1,0.05,0
0.023191,1.6291e-06,0.0096572,0.000292,0,0.00028169,1.6714e-05,-5.421e-20,0,3.6832,0.16667,0.14631,0.14725,1,0.292,1,0.05,0
0.023047,-1.408e-05,0.009793,0.000293,0,0.00028206,1.6854e-05,-5.5904e-20,0,3.6599,0.16737,0.14536,0.14632,1,0.293,1,0.05,0
0.022902,-2.9573e-05,0.0099306,0.000294,0,0.00028241,1.6995e-05,-5.5904e-20,0,3.6363,0.16808,0.1444,0.14538,1,0.294,1,0.05,0
0.022755,-4.4841e-05,0.01007,0.000295,0,0.00028274,1.7138e-05,-5.5904e-20,0,3.6125,0.16881,0.14343,0.14442,1,0.295,1,0.05,0
0.022607,-5.9882e-05,0.010212,0.000296,0,0.00028305,1.7283e-05,-5.5057e-20,0,3.5885,0.16955,0.14245,0.14346,1,0.296,1,0.05,0
0.022457,-7.4686e-05,0.010355,0.000297,0,0.00028335,1.7429e-05,-5.6751e-20,0,3.5642,0.17031,0.14146,0.14249,1,0.297,1,0.05,0
0.022306,-8.9246e-05,0.010501,0.000298,0,0.00028362,1.7576e-05,-5.7598e-20,0,3.5398,0.17109,0.14046,0.14151,1,0.298,1,0.05,0
0.022153,-0.00010355,0.010649,0.000299,0,0.00028388,1.7726e-05,-5.7175e-20,0,3.5151,0.17188,0.13945,0.14052,1,0.299,1,0.05,0
0.021999,-0.00011761,0.010798,0.0003,0,0.00028412,1.7877e-05,-5.7175e-20,0,3.4902,0.17268,0.13844,0.13953,1,0.3,1,0.05,0
0.021844,-0.00013139,0.010951,0.000301,0,0.00028434,1.803e-05,-5.9716e-20,0,3.4651,0.1735,0.13742,0.13852,1,0.301,1,0.05,0
0.021688,-0.00014491,0.011105,0.000302,0,0.00028455,1.8184e-05,-5.9716e-20,0,3.4397,0.17434,0.13639,0.13751,1,0.302,1,0.05,0
0.021531,-0.00015814,0.011262,0.000303,0,0.00028473,1.834e-05,-6.0563e-20,0,3.4142,0.1752,0.13535,0.13649,1,0.303,1,0.05,0
0.021372,-0.00017109,0.011421,0.000304,0,0.0002849,1.8498e-05,-6.1833e-20,0,3.3885,0.17607,0.1343,0.13546,1,0.304,1,0.05,0
0.021212,-0.00018375,0.011582,0.000305,0,0.00028505,1.8657e-05,-6.0986e-20,0,3.3626,0.17695,0.13325,0.13442,1,0.305,1,0.05,0
0.021051,-0.00019612,0.011746,0.000306,0,0.00028519,1.8818e-05,-6.1833e-20,0,3.3365,0.17785,0.13219,0.13338,1,0.306,1,0.05,0
0.020889,-0.00020818,0.011912,0.000307,0,0.0002853,1.8981e-05,-6.1833e-20,0,3.3101,0.17877,0.13112,0.13232,1,0.307,1,0.05,0
0.020726,-0.00021993,0.012081,0.000308,0,0.0002854,1.9146e-05,-6.3951e-20,0,3.2836,0.1797,0.13004,0.13126,1,0.308,1,0.05,0
0.020562,-0.00023137,0.012252,0.000309,0,0.00028548,1.9312e-05,-6.3527e-20,0,3.257,0.18065,0.12896,0.13019,1,0.309,1,0.05,0
0.020397,-0.00024248,0.012427,0.00031,0,0.00028554,1.9481e-05,-6.4375e-20,0,3.2301,0.18161,0.12787,0.12912,1,0.31,1,0.05,0
0.02023,-0.00025327,0.012603,0.000311,0,0.00028558,1.9651e-05,-6.3951e-20,0,3.203,0.18259,0.12677,0.12804,1,0.311,1,0.05,0
0.020063,-0.00026373,0.012782,0.000312,0,0.00028561,1.9822e-05,-6.5222e-20,0,3.1758,0.18359,0.12566,0.12695,1,0.312,1,0.05,0
0.019895,-0.00027382,0.012962,0.000313,0,0.00028562,1.9996e-05,-6.6916e-20,0,3.1484,0.1846,0.12455,0.12585,1,0.313,1,0.05,0
0.019726,-0.00028355,0.013146,0.000314,0,0.00028561,2.0172e-05,-6.6492e-20,0,3.1208,0.18564,0.12344,0.12475,1,0.314,1,0.05,0
0.019557,-0.00029291,0.013331,0.000315,0,0.00028559,2.0349e-05,-6.6492e-20,0,3.0931,0.18669,0.12231,0.12364,1,0.315,1,0.05,0
0.019386,-0.00030188,0.013519,0.000316,0,0.00028554,2.0529e-05,-6.861e-20,0,3.0652,0.18776,0.12118,0.12252,1,0.316,1,0.05,0
0.019215,-0.00031046,0.013711,0.000317,0,0.00028549,2.0711e-05,-6.6916e-20,0,3.0371,0.18886,0.12005,0.1214,1,0.317,1,0.05,0
0.019044,-0.00031866,0.013905,0.000318,0,0.00028541,2.0895e-05,-6.861e-20,0,3.0089,0.18997,0.11891,0.12027,1,0.318,1,0.05,0
0.018871,-0.00032646,0.014101,0.000319,0,0.00028532,2.1081e-05,-7.1151e-20,0,2.9806,0.1911,0.11776,0.11914,1,0.319,1,0.05,0
0.018698,-0.00033375,0.014299,0.00032,0,0.00028521,2.1269e-05,-6.9457e-20,0,2.9521,0.19224,0.1166,0.118,1,0.32,1,0.05,0
0.018524,-0.00034052,0.014499,0.000321,0,0.00028508,2.1457e-05,-7.1151e-20,0,2.9233,0.19338,0.11544,0.11685,1,0.321,1,0.05,0
0.018349,-0.0003468,0.014703,0.000322,0,0.00028493,2.1648e-05,-7.1151e-20,0,2.8944,0.19454,0.11427,0.11569,1,0.322,1,0.05,0
0.018174,-0.00035259,0.014909,0.000323,0,0.00028476,2.1839e-05,-7.0304e-20,0,2.8653,0.1957,0.1131,0.11452,1,0.323,1,0.05,0
0.017998,-0.00035785,0.015118,0.000324,0,0.00028457,2.2031e-05,-7.1574e-20,0,2.836,0.19686,0.11191,0.11335,1,0.324,1,0.05,0
0.017821,-0.00036261,0.015329,0.000325,0,0.00028437,2.2224e-05,-7.4539e-20,0,2.8064,0.19802,0.11072,0.11217,1,0.325,1,0.05,0
0.017644,-0.00036679,0.015543,0.000326,0,0.00028414,2.2418e-05,-7.3692e-20,0,2.7767,0.19917,0.10952,0.11098,1,0.326,1,0.05,0
0.017466,-0.00037043,0.01576,0.000327,0,0.00028389,2.2613e-05,-7.5386e-20,0,2.7468,0.20033,0.10831,0.10978,1,0.327,1,0.05,0
0.017287,-0.00037354,0.015982,0.000328,0,0.00028363,2.2808e-05,-7.4539e-20,0,2.7167,0.20148,0.10709,0.10858,1,0.328,1,0.05,0
0.017108,-0.00037613,0.016207,0.000329,0,0.00028334,2.3004e-05,-7.5809e-20,0,2.6863,0.20263,0.10587,0.10737,1,0.329,1,0.05,0
0.016928,-0.0003782,0.016436,0.00033,0,0.00028304,2.3201e-05,-7.8774e-20,0,2.6559,0.20378,0.10464,0.10615,1,0.33,1,0.05,0
0.016748,-0.00037976,0.01667,0.000331,0,0.00028272,2.3398e-05,-7.7927e-20,0,2.6252,0.20492,0.10341,0.10492,1,0.331,1,0.05,0
0.016567,-0.00038081,0.016905,0.000332,0,0.00028238,2.3596e-05,-7.6656e-20,0,2.5944,0.20606,0.10216,0.10369,1,0.332,1,0.05,0
0.016386,-0.00038136,0.017145,0.000333,0,0.00028202,2.3794e-05,-7.708e-20,0,2.5634,0.20719,0.10091,0.10245,1,0.333,1,0.05,0
0.016204,-0.00038142,0.017389,0.000334,0,0.00028164,2.3993e-05,-7.8774e-20,0,2.5323,0.20832,0.099661,0.1012,1,0.334,1,0.05,0
0.016022,-0.00038099,0.017636,0.000335,0,0.00028124,2.4192e-05,-7.9621e-20,0,2.501,0.20943,0.098401,0.099953,1,0.335,1,0.05,0
0.01584,-0.00038007,0.017886,0.000336,0,0.00028083,2.4392e-05,-8.0892e-20,0,2.4696,0.21055,0.097136,0.098696,1,0.336,1,0.05,0
0.015657,-0.00037869,0.01814,0.000337,0,0.0002804,2.4592e-05,-7.9198e-20,0,2.4381,0.21165,0.095866,0.097434,1,0.337,1,0.05,0
0.015474,-0.00037687,0.018398,0.000338,0,0.00027995,2.4793e-05,-8.3856e-20,0,2.4064,0.21275,0.094591,0.096167,1,0.338,1,0.05,0
0.015291,-0.00037459,0.018656,0.000339,0,0.00027949,2.4993e-05,-8.3433e-20,0,2.3746,0.21383,0.093312,0.094895,1,0.339,1,0.05,0
0.015107,-0.00037191,0.018919,0.00034,0,0.00027901,2.5193e-05,-8.4703e-20,0,2.3426,0.21489,0.092027,0.093617,1,0.34,1,0.05,0
0.014924,-0.0003688,0.019188,0.000341,0,0.00027851,2.5393e-05,-8.3009e-20,0,2.3106,0.21594,0.090739,0.092336,1,0.341,1,0.05,0
0.01474,-0.00036529,0.019459,0.000342,0,0.00027799,2.5592e-05,-8.5127e-20,0,2.2785,0.21697,0.089447,0.091051,1,0.342,1,0.05,0
0.014556,-0.00036139,0.019735,0.000343,0,0.00027746,2.5791e-05,-8.5974e-20,0,2.2462,0.21798,0.088151,0.089761,1,0.343,1,0.05,0
0.014371,-0.00035711,0.020013,0.000344,0,0.00027691,2.599e-05,-8.3856e-20,0,2.2139,0.21896,0.086852,0.088468,1,0.344,1,0.05,0
0.014187,-0.00035247,0.020297,0.000345,0,0.00027635,2.6187e-05,-8.6397e-20,0,2.1815,0.21993,0.085549,0.087171,1,0.345,1,0.05,0
0.014002,-0.00034748,0.020586,0.000346,0,0.00027577,2.6385e-05,-8.8938e-20,0,2.1489,0.22088,0.084244,0.085871,1,0.346,1,0.05,0
0.013817,-0.00034214,0.020878,0.000347,0,0.00027518,2.6581e-05,-9.0633e-20,0,2.1164,0.22179,0.082936,0.084568,1,0.347,1,0.05,0
0.013632,-0.00033648,0.021175,0.000348,0,0.00027457,2.6776e-05,-8.8091e-20,0,2.0837,0.22269,0.081625,0.083262,1,0.348,1,0.05,0
0.013448,-0.00033051,0.021478,0.000349,0,0.00027394,2.6971e-05,-8.9362e-20,0,2.051,0.22355,0.080313,0.081954,1,0.349,1,0.05,0
0.013263,-0.00032424,0.021787,0.00035,0,0.0002733,2.7164e-05,-9.0209e-20,0,2.0182,0.22439,0.078998,0.080643,1,0.35,1,0.05,0
0.013078,-0.00031768,0.022102,0.000351,0,0.00027265,2.7356e-05,-8.8938e-20,0,1.9854,0.22519,0.077682,0.079331,1,0.351,1,0.05,0
0.012893,-0.00031087,0.022422,0.000352,0,0.00027198,2.7546e-05,-9.148e-20,0,1.9526,0.22596,0.076364,0.078016,1,0.352,1,0.05,0
0.012708,-0.0003038,0.022749,0.000353,0,0.0002713,2.7735e-05,-9.3174e-20,0,1.9197,0.2267,0.075045,0.0767,1,0.353,1,0.05,0
0.012523,-0.0002965,0.023082,0.000354,0,0.00027061,2.7922e-05,-9.5715e-20,0,1.8867,0.2274,0.073725,0.075383,1,0.354,1,0.05,0
0.012338,-0.00028899,0.023419,0.000355,0,0.0002699,2.8108e-05,-9.4021e-20,0,1.8538,0.22806,0.072404,0.074065,1,0.355,1,0.05,0
0.012153,-0.00028128,0.023762,0.000356,0,0.00026918,2.8291e-05,-9.6562e-20,0,1.8208,0.22867,0.071082,0.072745,1,0.356,1,0.05,0
0.011969,-0.0002734,0.024111,0.000357,0,0.00026844,2.8472e-05,-9.6562e-20,0,1.7877,0.22925,0.06976,0.071424,1,0.357,1,0.05,0
0.011784,-0.00026535,0.024465,0.000358,0,0.00026769,2.8651e-05,-9.3174e-20,0,1.7547,0.22978,0.068437,0.070104,1,0.358,1,0.05,0
0.011599,-0.00025718,0.024825,0.000359,0,0.00026693,2.8827e-05,-9.5715e-20,0,1.7217,0.23026,0.067115,0.068782,1,0.359,1,0.05,0
0.011415,-0.00024888,0.025189,0.00036,0,0.00026616,2.9001e-05,-9.5715e-20,0,1.6886,0.23069,0.065793,0.067461,1,0.36,1,0.05,0
0.01123,-0.00024047,0.025559,0.000361,0,0.00026537,2.9171e-05,-9.4021e-20,0,1.6556,0.23108,0.064471,0.06614,1,0.361,1,0.05,0
0.011046,-0.00023197,0.025936,0.000362,0,0.00026457,2.9339e-05,-9.8256e-20,0,1.6226,0.23141,0.063151,0.06482,1,0.362,1,0.05,0
0.010862,-0.00022339,0.02632,0.000363,0,0.00026376,2.9504e-05,-9.9103e-20,0,1.5896,0.23169,0.061831,0.063501,1,0.363,1,0.05,0
0.010678,-0.00021476,0.026707,0.000364,0,0.00026294,2.9666e-05,-9.5715e-20,0,1.5566,0.23192,0.060514,0.062183,1,0.364,1,0.05,0
0.010495,-0.00020609,0.027102,0.000365,0,0.00026211,2.9825e-05,-9.9103e-20,0,1.5237,0.23209,0.059197,0.060866,1,0.365,1,0.05,0
0.010312,-0.00019739,0.027503,0.000366,0,0.00026126,2.998e-05,-9.8256e-20,0,1.4908,0.2322,0.057883,0.05955,1,0.366,1,0.05,0
0.010129,-0.00018868,0.027912,0.000367,0,0.00026041,3.0132e-05,-1.008e-19,0,1.458,0.23226,0.056571,0.058237,1,0.367,1,0.05,0
0.0099459,-0.00017999,0.028328,0.000368,0,0.00025955,3.028e-05,-1.0249e-19,0,1.4252,0.23225,0.055262,0.056927,1,0.368,1,0.05,0
0.0097636,-0.00017133,0.028752,0.000369,0,0.00025868,3.0424e-05,-1.0164e-19,0,1.3925,0.23218,0.053956,0.055619,1,0.369,1,0.05,0
0.0095816,-0.00016271,0.029183,0.00037,0,0.00025779,3.0564e-05,-9.995e-20,0,1.3599,0.23205,0.052654,0.054314,1,0.37,1,0.05,0
0.0094001,-0.00015416,0.029621,0.000371,0,0.0002569,3.0701e-05,-1.008e-19,0,1.3273,0.23185,0.051355,0.053013,1,0.371,1,0.05,0
0.009219,-0.0001457,0.030067,0.000372,0,0.00025601,3.0832e-05,-1.0376e-19,0,1.2949,0.23158,0.050061,0.051715,1,0.372,1,0.05,0
0.0090385,-0.00013733,0.030521,0.000373,0,0.0002551,3.096e-05,-1.0334e-19,0,1.2625,0.23125,0.048771,0.050423,1,0.373,1,0.05,0
0.0088584,-0.00012907,0.030982,0.000374,0,0.00025419,3.1083e-05,-1.0334e-19,0,1.2303,0.23084,0.047487,0.049135,1,0.374,1,0.05,0
0.008679,-0.00012095,0.031451,0.000375,0,0.00025327,3.1202e-05,-1.0249e-19,0,1.1983,0.23037,0.046208,0.047852,1,0.375,1,0.05,0
0.0085003,-0.00011296,0.031927,0.000376,0,0.00025234,3.1315e-05,-1.0334e-19,0,1.1663,0.22983,0.044935,0.046575,1,0.376,1,0.05,0
0.0083223,-0.00010514,0.032411,0.000377,0,0.00025141,3.1425e-05,-1.0503e-19,0,1.1345,0.22921,0.043669,0.045304,1,0.377,1,0.05,0
0.008145,-9.7492e-05,0.032903,0.000378,0,0.00025048,3.1529e-05,-1.0376e-19,0,1.1029,0.22853,0.042409,0.04404,1,0.378,1,0.05,0
0.0079684,-9.0032e-05,0.033403,0.000379,0,0.00024953,3.1628e-05,-1.0546e-19,0,1.0715,0.22777,0.041157,0.042783,1,0.379,1,0.05,0
0.0077927,-8.2771e-05,0.03391,0.00038,0,0.00024859,3.1723e-05,-1.0842e-19,0,1.0402,0.22693,0.039913,0.041534,1,0.38,1,0.05,0
0.007618,-7.5722e-05,0.034425,0.000381,0,0.00024764,3.1812e-05,-1.0546e-19,0,1.0092,0.22603,0.038677,0.040292,1,0.381,1,0.05,0
0.0074441,-6.8899e-05,0.034948,0.000382,0,0.00024669,3.1896e-05,-1.0673e-19,0,0.97834,0.22505,0.03745,0.039059,1,0.382,1,0.05,0
0.0072714,-6.2308e-05,0.035479,0.000383,0,0.00024574,3.1975e-05,-1.0842e-19,0,0.94774,0.224,0.036232,0.037836,1,0.383,1,0.05,0
0.0070997,-5.5964e-05,0.036017,0.000384,0,0.00024478,3.2049e-05,-1.0461e-19,0,0.91738,0.22288,0.035025,0.036622,1,0.384,1,0.05,0
0.0069293,-4.9872e-05,0.036562,0.000385,0,0.00024383,3.2118e-05,-1.063e-19,0,0.88728,0.22169,0.033828,0.035418,1,0.385,1,0.05,0
0.0067601,-4.4044e-05,0.037115,0.000386,0,0.00024288,3.2182e-05,-1.0588e-19,0,0.85745,0.22043,0.032643,0.034226,1,0.386,1,0.05,0
0.0065922,-3.8485e-05,0.037676,0.000387,0,0.00024192,3.2241e-05,-1.08e-19,0,0.82792,0.21909,0.031469,0.033045,1,0.387,1,0.05,0
0.0064257,-3.3204e-05,0.038244,0.000388,0,0.00024097,3.2294e-05,-1.0334e-19,0,0.79868,0.21769,0.030308,0.031876,1,0.388,1,0.05,0
0.0062608,-2.8206e-05,0.038817,0.000389,0,0.00024002,3.2342e-05,-1.0927e-19,0,0.76977,0.21622,0.02916,0.03072,1,0.389,1,0.05,0
0.0060973,-2.3512e-05,0.039398,0.00039,0,0.00023908,3.2386e-05,-1.0673e-19,0,0.74118,0.21468,0.028025,0.029577,1,0.39,1,0.05,0
0.0059356,-1.9115e-05,0.039986,0.000391,0,0.00023814,3.2424e-05,-1.0715e-19,0,0.71295,0.21308,0.026905,0.028449,1,0.391,1,0.05,0
0.0057756,-1.5018e-05,0.040579,0.000392,0,0.0002372,3.2457e-05,-1.08e-19,0,0.68509,0.21141,0.0258,0.027335,1,0.392,1,0.05,0
0.0056173,-1.1233e-05,0.04118,0.000393,0,0.00023627,3.2485e-05,-1.0588e-19,0,0.6576,0.20968,0.02471,0.026236,1,0.393,1,0.05,0
0.005461,-7.7571e-06,0.041788,0.000394,0,0.00023534,3.2508e-05,-1.0842e-19,0,0.63051,0.20789,0.023636,0.025153,1,0.394,1,0.05,0
0.0053066,-4.5903e-06,0.042403,0.000395,0,0.00023443,3.2526e-05,-1.0927e-19,0,0.60382,0.20604,0.022578,0.024086,1,0.395,1,0.05,0
0.0051542,-1.729e-06,0.043025,0.000396,0,0.00023352,3.254e-05,-1.1011e-19,0,0.57755,0.20413,0.021538,0.023036,1,0.396,1,0.05,0
0.005004,8.2672e-07,0.043653,0.000397,0,0.00023262,3.2549e-05,-1.063e-19,0,0.55172,0.20217,0.020515,0.022004,1,0.397,1,0.05,0
0.004856,3.0799e-06,0.044289,0.000398,0,0.00023173,3.2553e-05,-1.0969e-19,0,0.52635,0.20016,0.019511,0.020989,1,0.398,1,0.05,0
0.0047102,5.0302e-06,0.044931,0.000399,0,0.00023085,3.2554e-05,-1.08e-19,0,0.50142,0.1981,0.018525,0.019993,1,0.399,1,0.05,0
0.0045667,6.6807e-06,0.04558,0.0004,0,0.00022998,3.255e-05,-1.1011e-19,0,0.47696,0.196,0.017558,0.019015,1,0.4,1,0.05,0
0.0044256,8.0387e-06,0.046235,0.000401,0,0.00022912,3.2542e-05,-1.0927e-19,0,0.45299,0.19385,0.01661,0.018057,1,0.401,1,0.05,0
0.004287,9.1018e-06,0.046897,0.000402,0,0.00022827,3.253e-05,-1.0715e-19,0,0.4295,0.19166,0.015682,0.017118,1,0.402,1,0.05,0
0.0041508,9.8814e-06,0.047564,0.000403,0,0.00022744,3.2515e-05,-1.063e-19,0,0.40652,0.18943,0.014775,0.016199,1,0.403,1,0.05,0
0.0040172,1.038e-05,0.048238,0.000404,0,0.00022662,3.2496e-05,-1.1011e-19,0,0.38404,0.18716,0.013887,0.015301,1,0.404,1,0.05,0
0.0038863,1.0603e-05,0.048918,0.000405,0,0.00022581,3.2473e-05,-1.0842e-19,0,0.36207,0.18486,0.013021,0.014423,1,0.405,1,0.05,0
0.0037579,1.0556e-05,0.049604,0.000406,0,0.00022502,3.2447e-05,-1.0969e-19,0,0.34062,0.18254,0.012176,0.013566,1,0.406,1,0.05,0
0.0036322,1.0246e-05,0.050295,0.000407,0,0.00022424,3.2418e-05,-1.0969e-19,0,0.31971,0.18018,0.011351,0.01273,1,0.407,1,0.05,0
0.0035093,9.6832e-06,0.050992,0.000408,0,0.00022348,3.2386e-05,-1.0419e-19,0,0.29932,0.1778,0.010549,0.011915,1,0.408,1,0.05,0
0.0033891,8.8718e-06,0.051695,0.000409,0,0.00022274,3.2351e-05,-1.0546e-19,0,0.27947,0.1754,0.0097676,0.011122,1,0.409,1,0.05,0
0.0032717,7.8207e-06,0.052397,0.00041,0,0.00022201,3.2313e-05,-1.0588e-19,0,0.26016,0.17298,0.0090081,0.01035,1,0.41,1,0.05,0
0.003157,6.5572e-06,0.053103,0.000411,0,0.00022129,3.2274e-05,-1.0461e-19,0,0.24137,0.17055,0.0082695,0.009599,1,0.411,1,0.05,0
0.0030451,5.0792e-06,0.053815,0.000412,0,0.00022059,3.2232e-05,-1.08e-19,0,0.22311,0.16811,0.0075526,0.0088695,1,0.412,1,0.05,0
0.002936,3.3933e-06,0.054532,0.000413,0,0.00021991,3.2188e-05,-1.0969e-19,0,0.20539,0.16565,0.0068572,0.0081614,1,0.413,1,0.05,0
0.0028299,1.511e-06,0.055254,0.000414,0,0.00021925,3.2142e-05,-1.0842e-19,0,0.18822,0.16319,0.006184,0.0074754,1,0.414,1,0.05,0
0.0027265,-5.656e-07,0.055981,0.000415,0,0.0002186,3.2094e-05,-1.0969e-19,0,0.17159,0.16073,0.0055321,0.0068106,1,0.415,1,0.05,0
0.0026259,-2.8255e-06,0.056713,0.000416,0,0.00021797,3.2045e-05,-1.0715e-19,0,0.15549,0.15826,0.0049018,0.0061673,1,0.416,1,0.05,0
0.0025282,-5.262e-06,0.05745,0.000417,0,0.00021736,3.1994e-05,-1.0673e-19,0,0.13992,0.1558,0.0042929,0.0055453,1,0.417,1,0.05,0
0.0024333,-7.8659e-06,0.058191,0.000418,0,0.00021676,3.1942e-05,-1.0334e-19,0,0.12488,0.15333,0.0037053,0.0049445,1,0.418,1,0.05,0
0.0023412,-1.0629e-05,0.058937,0.000419,0,0.00021619,3.1889e-05,-1.0757e-19,0,0.11037,0.15086,0.0031388,0.0043647,1,0.419,1,0.05,0
0.0022519,-1.3543e-05,0.059688,0.00042,0,0.00021563,3.1834e-05,-1.0546e-19,0,0.09638,0.14841,0.0025932,0.0038057,1,0.42,1,0.05,0
0.0021653,-1.6599e-05,0.060443,0.000421,0,0.00021508,3.1778e-05,-1.0673e-19,0,0.082904,0.14595,0.0020682,0.0032674,1,0.421,1,0.05,0
0.0020814,-1.9791e-05,0.061203,0.000422,0,0.00021456,3.1722e-05,-1.0757e-19,0,0.069929,0.14351,0.0015633,0.002749,1,0.422,1,0.05,0
0.0020002,-2.3105e-05,0.061967,0.000423,0,0.00021405,3.1664e-05,-1.0376e-19,0,0.057463,0.14107,0.0010788,0.002251,1,0.423,1,0.05,0
0.0019217,-2.6538e-05,0.062737,0.000424,0,0.00021356,3.1606e-05,-1.0334e-19,0,0.045484,0.13865,0.00061384,0.0017726,1,0.424,1,0.05,0
0.0018458,-3.0078e-05,0.06351,0.000425,0,0.00021309,3.1547e-05,-1.0376e-19,0,0.033991,0.13624,0.00016832,0.0013135,1,0.425,1,0.05,0
0.0017725,-3.3718e-05,0.064289,0.000426,0,0.00021263,3.1488e-05,-1.0694e-19,0,0.022975,0.13384,-0.00025808,0.0008735,1,0.426,1,0.05,0
0.0017017,-3.7451e-05,0.065071,0.000427,0,0.00021219,3.1428e-05,-1.0757e-19,0,0.012419,0.13146,-0.00066606,0.00045192,1,0.427,1,0.05,0
0.0016334,-4.1267e-05,0.065859,0.000428,0,0.00021176,3.1368e-05,-1.0588e-19,0,0.0023239,0.1291,-0.0010556,4.877e-05,1,0.428,1,0.05,0
0.0015676,-4.5159e-05,0.066651,0.000429,0,0.00021136,3.1308e-05,-1.0524e-19,0,-0.0073252,0.12675,-0.0014273,-0.00033655,1,0.429,1,0.05,0
0.0015041,-4.9121e-05,0.067448,0.00043,0,0.00021096,3.1247e-05,-1.0291e-19,0,-0.016542,0.12442,-0.0017818,-0.0007046,1,0.43,1,0.05,0
0.001443,-5.3142e-05,0.068249,0.000431,0,0.00021059,3.1187e-05,-1.0101e-19,0,-0.025331,0.12211,-0.0021191,-0.0010555,1,0.431,1,0.05,0
0.0013841,-5.7217e-05,0.069056,0.000432,0,0.00021023,3.1126e-05,-1.0524e-19,0,-0.033704,0.11982,-0.0024397,-0.0013898,1,0.432,1,0.05,0
0.0013275,-6.1342e-05,0.069867,0.000433,0,0.00020988,3.1065e-05,-1.0588e-19,0,-0.041685,0.11755,-0.0027448,-0.0017084,1,0.433,1,0.05,0
0.0012731,-6.5503e-05,0.070683,0.000434,0,0.00020955,3.1004e-05,-1.0376e-19,0,-0.04926,0.1153,-0.0030336,-0.0020108,1,0.434,1,0.05,0
0.0012207,-6.9701e-05,0.071504,0.000435,0,0.00020923,3.0944e-05,-1.0503e-19,0,-0.056464,0.11308,-0.0033076,-0.0022983,1,0.435,1,0.05,0
0.0011704,-7.3927e-05,0.072331,0.000436,0,0.00020892,3.0883e-05,-1.0249e-19,0,-0.063297,0.11087,-0.0035668,-0.002571,1,0.436,1,0.05,0
0.0011222,-7.8173e-05,0.073162,0.000437,0,0.00020863,3.0823e-05,-1.0122e-19,0,-0.069767,0.10869,-0.0038116,-0.0028293,1,0.437,1,0.05,0
0.0010759,-8.2438e-05,0.073993,0.000438,0,0.00020835,3.0763e-05,-1.0291e-19,0,-0.075896,0.10654,-0.0040427,-0.0030738,1,0.438,1,0.05,0
0.0010314,-8.6716e-05,0.07483,0.000439,0,0.00020809,3.0704e-05,-1.0143e-19,0,-0.081696,0.10441,-0.0042607,-0.0033052,1,0.439,1,0.05,0
0.00098876,-9.0999e-05,0.07567,0.00044,0,0.00020784,3.0645e-05,-1.0419e-19,0,-0.087171,0.10231,-0.0044658,-0.0035236,1,0.44,1,0.05,0
0.00094789,-9.5282e-05,0.076515,0.000441,0,0.00020759,3.0586e-05,-1.0376e-19,0,-0.092335,0.10023,-0.0046585,-0.0037296,1,0.441,1,0.05,0
0.00090876,-9.9559e-05,0.077366,0.000442,0,0.00020737,3.0528e-05,-1.0334e-19,0,-0.097193,0.098185,-0.0048391,-0.0039233,1,0.442,1,0.05,0
0.00087129,-0.00010383,0.078223,0.000443,0,0.00020715,3.047e-05,-1.0228e-19,0,-0.10176,0.096161,-0.005008,-0.0041054,1,0.443,1,0.05,0
0.00083543,-0.00010808,0.079086,0.000444,0,0.00020694,3.0413e-05,-1.0419e-19,0,-0.10605,0.094163,-0.0051658,-0.0042763,1,0.444,1,0.05,0
0.00080111,-0.00011233,0.079955,0.000445,0,0.00020674,3.0357e-05,-9.8679e-20,0,-0.11006,0.092191,-0.0053128,-0.0044364,1,0.445,1,0.05,0
0.00076832,-0.00011655,0.08083,0.000446,0,0.00020656,3.03e-05,-1.0376e-19,0,-0.11381,0.090244,-0.0054494,-0.0045858,1,0.446,1,0.05,0
0.00073694,-0.00012075,0.081712,0.000447,0,0.00020638,3.0245e-05,-1.008e-19,0,-0.11732,0.088322,-0.0055761,-0.0047255,1,0.447,1,0.05,0
0.00070701,-0.00012493,0.082599,0.000448,0,0.00020621,3.019e-05,-1.0461e-19,0,-0.12057,0.086425,-0.005693,-0.0048551,1,0.448,1,0.05,0
0.0006784,-0.00012908,0.083494,0.000449,0,0.00020606,3.0135e-05,-9.995e-20,0,-0.1236,0.084553,-0.0058008,-0.0049757,1,0.449,1,0.05,0
0.00065107,-0.00013321,0.084392,0.00045,0,0.00020591,3.0081e-05,-1.0249e-19,0,-0.12641,0.082706,-0.0058999,-0.0050874,1,0.45,1,0.05,0
0.00062498,-0.0001373,0.085296,0.000451,0,0.00020577,3.0027e-05,-9.995e-20,0,-0.129,0.080884,-0.0059906,-0.0051907,1,0.451,1,0.05,0
0.0006001,-0.00014136,0.086208,0.000452,0,0.00020563,2.9974e-05,-1.0249e-19,0,-0.13139,0.079086,-0.0060731,-0.0052857,1,0.452,1,0.05,0
0.00057636,-0.00014539,0.087127,0.000453,0,0.00020551,2.9921e-05,-9.8256e-20,0,-0.13358,0.077313,-0.0061479,-0.0053729,1,0.453,1,0.05,0
0.00055377,-0.00014937,0.088053,0.000454,0,0.00020539,2.9869e-05,-1.0122e-19,0,-0.13558,0.075563,-0.0062151,-0.0054524,1,0.454,1,0.05,0
0.00053221,-0.00015332,0.088986,0.000455,0,0.00020528,2.9817e-05,-9.9103e-20,0,-0.13741,0.073837,-0.0062753,-0.0055248,1,0.455,1,0.05,0
0.00051172,-0.00015724,0.089927,0.000456,0,0.00020518,2.9766e-05,-1.0016e-19,0,-0.13905,0.072134,-0.0063284,-0.0055901,1,0.456,1,0.05,0
0.00049218,-0.00016111,0.090875,0.000457,0,0.00020509,2.9715e-05,-1.0143e-19,0,-0.14053,0.070454,-0.0063751,-0.0056489,1,0.457,1,0.05,0
0.00047363,-0.00016494,0.09183,0.000458,0,0.000205,2.9665e-05,-1.0122e-19,0,-0.14185,0.068797,-0.0064154,-0.0057012,1,0.458,1,0.05,0
0.00045601,-0.00016873,0.092794,0.000459,0,0.00020492,2.9615e-05,-9.8256e-20,0,-0.14302,0.067163,-0.0064495,-0.0057472,1,0.459,1,0.05,0
0.00043923,-0.00017248,0.093765,0.00046,0,0.00020484,2.9566e-05,-9.8679e-20,0,-0.14404,0.06555,-0.0064781,-0.0057876,1,0.46,1,0.05,0
0.00042336,-0.00017618,0.094745,0.000461,0,0.00020477,2.9517e-05,-9.7832e-20,0,-0.14491,0.06396,-0.0065008,-0.0058221,1,0.461,1,0.05,0
0.00040829,-0.00017984,0.095732,0.000462,0,0.00020471,2.9468e-05,-9.8679e-20,0,-0.14565,0.062391,-0.0065183,-0.0058512,1,0.462,1,0.05,0
0.00039402,-0.00018345,0.096728,0.000463,0,0.00020465,2.942e-05,-9.7409e-20,0,-0.14626,0.060844,-0.0065307,-0.0058751,1,0.463,1,0.05,0
0.0003805,-0.00018702,0.097732,0.000464,0,0.0002046,2.9373e-05,-9.9526e-20,0,-0.14675,0.059317,-0.0065382,-0.0058941,1,0.464,1,0.05,0
0.00036773,-0.00019055,0.098745,0.000465,0,0.00020455,2.9325e-05,-1.0037e-19,0,-0.14711,0.057811,-0.0065409,-0.0059082,1,0.465,1,0.05,0
0.00035565,-0.00019403,0.099766,0.000466,0,0.00020451,2.9279e-05,-9.7621e-20,0,-0.14736,0.056326,-0.0065392,-0.0059177,1,0.466,1,0.05,0
0.00034429,-0.00019746,0.1008,0.000467,0,0.00020447,2.9232e-05,-9.9526e-20,0,-0.1475,0.054861,-0.006533,-0.0059227,1,0.467,1,0.05,0
0.00033359,-0.00020085,0.10184,0.000468,0,0.00020444,2.9186e-05,-9.6562e-20,0,-0.14753,0.053416,-0.0065226,-0.0059234,1,0.468,1,0.05,0
0.00032351,-0.00020419,0.10288,0.000469,0,0.00020441,2.914e-05,-9.5715e-20,0,-0.14745,0.051991,-0.0065083,-0.0059201,1,0.469,1,0.05,0
0.00031406,-0.00020748,0.10394,0.00047,0,0.00020438,2.9095e-05,-9.6774e-20,0,-0.14728,0.050585,-0.0064901,-0.0059129,1,0.47,1,0.05,0
0.0003052,-0.00021073,0.10501,0.000471,0,0.00020436,2.905e-05,-9.8256e-20,0,-0.14702,0.049198,-0.0064683,-0.0059019,1,0.471,1,0.05,0
0.00029692,-0.00021393,0.10608,0.000472,0,0.00020435,2.9006e-05,-9.8256e-20,0,-0.14666,0.04783,-0.0064429,-0.0058872,1,0.472,1,0.05,0
0.00028919,-0.00021709,0.10717,0.000473,0,0.00020434,2.8962e-05,-9.8891e-20,0,-0.14622,0.046481,-0.0064141,-0.005869,1,0.473,1,0.05,0
0.00028203,-0.00022019,0.10826,0.000474,0,0.00020433,2.8918e-05,-9.635e-20,0,-0.14569,0.045151,-0.0063818,-0.0058473,1,0.474,1,0.05,0
0.00027537,-0.00022326,0.10936,0.000475,0,0.00020433,2.8874e-05,-9.4232e-20,0,-0.14508,0.043838,-0.0063466,-0.0058225,1,0.475,1,0.05,0
0.0002692,-0.00022628,0.11047,0.000476,0,0.00020433,2.8831e-05,-9.5291e-20,0,-0.14439,0.042544,-0.0063084,-0.0057947,1,0.476,1,0.05,0
0.00026355,-0.00022925,0.11159,0.000477,0,0.00020433,2.8788e-05,-9.6138e-20,0,-0.14362,0.041267,-0.0062671,-0.0057636,1,0.477,1,0.05,0
0.00025835,-0.00023217,0.11272,0.000478,0,0.00020434,2.8746e-05,-9.4021e-20,0,-0.14279,0.040007,-0.0062231,-0.0057298,1,0.478,1,0.05,0
0.00025367,-0.00023505,0.11386,0.000479,0,0.00020436,2.8704e-05,-9.3174e-20,0,-0.14187,0.038765,-0.006176,-0.0056928,1,0.479,1,0.05,0
0.00024943,-0.00023788,0.115,0.00048,0,0.00020437,2.8662e-05,-9.3174e-20,0,-0.14089,0.03754,-0.0061263,-0.0056532,1,0.48,1,0.05,0
0.00024561,-0.00024067,0.11616,0.000481,0,0.00020439,2.862e-05,-9.3809e-20,0,-0.13985,0.036332,-0.0060743,-0.005611,1,0.481,1,0.05,0
0.00024223,-0.00024342,0.11733,0.000482,0,0.00020441,2.8579e-05,-9.5291e-20,0,-0.13874,0.03514,-0.0060196,-0.0055662,1,0.482,1,0.05,0
0.00023924,-0.00024611,0.11851,0.000483,0,0.00020444,2.8538e-05,-9.4868e-20,0,-0.13757,0.033965,-0.0059628,-0.0055191,1,0.483,1,0.05,0
0.00023669,-0.00024877,0.1197,0.000484,0,0.00020447,2.8497e-05,-9.5291e-20,0,-0.13633,0.032806,-0.0059033,-0.0054693,1,0.484,1,0.05,0
0.00023452,-0.00025137,0.12089,0.000485,0,0.0002045,2.8457e-05,-9.4868e-20,0,-0.13504,0.031662,-0.0058417,-0.0054172,1,0.485,1,0.05,0
0.00023278,-0.00025394,0.1221,0.000486,0,0.00020454,2.8417e-05,-9.5503e-20,0,-0.13369,0.030535,-0.0057777,-0.0053627,1,0.486,1,0.05,0
0.00023139,-0.00025645,0.12332,0.000487,0,0.00020457,2.8377e-05,-9.5503e-20,0,-0.13228,0.029423,-0.0057117,-0.0053061,1,0.487,1,0.05,0
0.00023041,-0.00025892,0.12455,0.000488,0,0.00020462,2.8337e-05,-9.148e-20,0,-0.13081,0.028326,-0.0056434,-0.005247,1,0.488,1,0.05,0
0.00022976,-0.00026135,0.12579,0.000489,0,0.00020466,2.8298e-05,-9.5715e-20,0,-0.1293,0.027244,-0.0055733,-0.0051861,1,0.489,1,0.05,0
0.00022949,-0.00026374,0.12704,0.00049,0,0.00020471,2.8259e-05,-9.6138e-20,0,-0.12773,0.026178,-0.005501,-0.005123,1,0.49,1,0.05,0
0.00022956,-0.00026608,0.12831,0.000491,0,0.00020476,2.822e-05,-9.275e-20,0,-0.12611,0.025126,-0.0054269,-0.0050579,1,0.491,1,0.05,0
0.00022996,-0.00026837,0.12958,0.000492,0,0.00020482,2.8181e-05,-9.2962e-20,0,-0.12445,0.024088,-0.005351,-0.004991,1,0.492,1,0.05,0
0.00023071,-0.00027063,0.13085,0.000493,0,0.00020487,2.8143e-05,-9.2962e-20,0,-0.12273,0.023066,-0.0052733,-0.0049221,1,0.493,1,0.05,0
0.00023164,-0.00027285,0.13214,0.000494,0,0.00020493,2.8105e-05,-8.9997e-20,0,-0.121,0.022057,-0.0051948,-0.0048524,1,0.494,1,0.05,0
0.00023295,-0.00027502,0.13343,0.000495,0,0.00020499,2.8067e-05,-9.4868e-20,0,-0.11921,0.021063,-0.0051142,-0.0047804,1,0.495,1,0.05,0
-0.00099622,-0.00032749,0.135,0.000496,0,0.00019509,2.8027e-05,-9.3597e-20,0,-0.31538,0.020042,-0.01295,-0.012625,1,0.496,1,0.05,0
-0.001011,-0.00032983,0.13639,0.000497,0,0.00019493,2.7985e-05,-9.5503e-20,0,-0.31599,0.019023,-0.012965,-0.012649,1,0.497,1,0.05,0
-0.0010209,-0.00033197,0.13777,0.000498,0,0.00019481,2.7944e-05,-9.4444e-20,0,-0.31584,0.018018,-0.01295,-0.012642,1,0.498,1,0.05,0
-0.0010294,-0.00033405,0.13916,0.000499,0,0.0001947,2.7903e-05,-9.4868e-20,0,-0.31546,0.017028,-0.012926,-0.012627,1,0.499,1,0.05,0
-0.0010369,-0.00033608,0.14054,0.0005,0,0.0001946,2.7862e-05,-9.5715e-20,0,-0.31492,0.016054,-0.012896,-0.012605,1,0.5,1,0.05,0
-0.0010433,-0.00033805,0.14192,0.000501,0,0.00019451,2.7822e-05,-8.8938e-20,0,-0.31422,0.015094,-0.012859,-0.012577,1,0.501,1,0.05,0
-0.0010489,-0.00033996,0.14332,0.000502,0,0.00019442,2.7782e-05,-9.275e-20,0,-0.31339,0.014149,-0.012817,-0.012543,1,0.502,1,0.05,0
-0.0010538,-0.00034184,0.14471,0.000503,0,0.00019434,2.7742e-05,-9.0633e-20,0,-0.31246,0.013219,-0.012772,-0.012506,1,0.503,1,0.05,0
-0.0010581,-0.00034366,0.14611,0.000504,0,0.00019426,2.7702e-05,-9.3385e-20,0,-0.31144,0.012302,-0.012722,-0.012465,1,0.504,1,0.05,0
-0.0010619,-0.00034543,0.14752,0.000505,0,0.00019419,2.7663e-05,-9.0209e-20,0,-0.31034,0.011399,-0.01267,-0.01242,1,0.505,1,0.05,0
-0.0010652,-0.00034716,0.14893,0.000506,0,0.00019412,2.7624e-05,-9.4021e-20,0,-0.30918,0.01051,-0.012616,-0.012374,1,0.506,1,0.05,0
-0.0010682,-0.00034886,0.15034,0.000507,0,0.00019405,2.7585e-05,-9.275e-20,0,-0.30798,0.0096334,-0.01256,-0.012325,1,0.507,1,0.05,0
-0.0010708,-0.00035051,0.15176,0.000508,0,0.00019399,2.7546e-05,-9.2327e-20,0,-0.30673,0.00877,-0.012501,-0.012275,1,0.508,1,0.05,0
-0.0010731,-0.00035212,0.15317,0.000509,0,0.00019393,2.7507e-05,-8.9362e-20,0,-0.30544,0.0079195,-0.012442,-0.012223,1,0.509,1,0.05,0
-0.0010752,-0.0003537,0.15459,0.00051,0,0.00019386,2.7469e-05,-9.2327e-20,0,-0.30412,0.0070814,-0.012382,-0.01217,1,0.51,1,0.05,0
-0.001077,-0.00035523,0.15602,0.000511,0,0.00019381,2.743e-05,-9.148e-20,0,-0.30277,0.0062555,-0.01232,-0.012116,1,0.511,1,0.05,0
-0.0010786,-0.00035673,0.15746,0.000512,0,0.00019375,2.7392e-05,-9.148e-20,0,-0.30139,0.0054416,-0.012257,-0.01206,1,0.512,1,0.05,0
-0.0010799,-0.0003582,0.15889,0.000513,0,0.00019369,2.7354e-05,-9.2327e-20,0,-0.29999,0.0046396,-0.012193,-0.012004,1,0.513,1,0.05,0
-0.0010811,-0.00035963,0.16034,0.000514,0,0.00019364,2.7317e-05,-8.9785e-20,0,-0.29856,0.0038492,-0.012129,-0.011947,1,0.514,1,0.05,0
-0.0010821,-0.00036103,0.16178,0.000515,0,0.00019358,2.7279e-05,-9.0421e-20,0,-0.29712,0.0030703,-0.012064,-0.011889,1,0.515,1,0.05,0
-0.0010829,-0.00036239,0.16322,0.000516,0,0.00019353,2.7241e-05,-8.9362e-20,0,-0.29566,0.0023025,-0.011998,-0.01183,1,0.516,1,0.05,0
-0.0010835,-0.00036373,0.16468,0.000517,0,0.00019348,2.7204e-05,-9.1268e-20,0,-0.29419,0.0015458,-0.011932,-0.011771,1,0.517,1,0.05,0
-0.001084,-0.00036503,0.16614,0.000518,0,0.00019343,2.7166e-05,-8.9362e-20,0,-0.29269,0.00079989,-0.011865,-0.011711,1,0.518,1,0.05,0
-0.0010843,-0.00036629,0.16761,0.000519,0,0.00019338,2.7129e-05,-9.2327e-20,0,-0.29118,6.4685e-05,-0.011797,-0.01165,1,0.519,1,0.05,0
-0.0010844,-0.00036752,0.16909,0.00052,0,0.00019334,2.7092e-05,-8.9362e-20,0,-0.28965,-0.00065999,-0.011729,-0.011589,1,0.52,1,0.05,0
-0.0010845,-0.00036873,0.17056,0.000521,0,0.00019329,2.7055e-05,-8.788e-20,0,-0.28811,-0.0013743,-0.01166,-0.011527,1,0.521,1,0.05,0
-0.0010843,-0.00036991,0.17205,0.000522,0,0.00019324,2.7018e-05,-8.9785e-20,0,-0.28656,-0.0020784,-0.011591,-0.011464,1,0.522,1,0.05,0
-0.001084,-0.00037105,0.17354,0.000523,0,0.0001932,2.6981e-05,-9.148e-20,0,-0.28498,-0.0027725,-0.011522,-0.011401,1,0.523,1,0.05,0
-0.0010836,-0.00037217,0.17504,0.000524,0,0.00019316,2.6944e-05,-8.8515e-20,0,-0.2834,-0.0034568,-0.011452,-0.011338,1,0.524,1,0.05,0
-0.001083,-0.00037326,0.17653,0.000525,0,0.00019311,2.6908e-05,-8.8091e-20,0,-0.28181,-0.0041313,-0.011381,-0.011274,1,0.525,1,0.05,0
-0.0010824,-0.00037433,0.17803,0.000526,0,0.00019307,2.6871e-05,-9.1691e-20,0,-0.28022,-0.0047963,-0.011311,-0.01121,1,0.526,1,0.05,0
-0.0010817,-0.00037538,0.17952,0.000527,0,0.00019303,2.6834e-05,-8.7668e-20,0,-0.27862,-0.005452,-0.011241,-0.011146,1,0.527,1,0.05,0
-0.0010809,-0.00037641,0.18101,0.000528,0,0.00019299,2.6798e-05,-8.6821e-20,0,-0.27702,-0.0060985,-0.01117,-0.011081,1,0.528,1,0.05,0
-0.00108,-0.00037741,0.18252,0.000529,0,0.00019295,2.6761e-05,-8.8515e-20,0,-0.2754,-0.0067358,-0.011099,-0.011017,1,0.529,1,0.05,0
-0.0010789,-0.00037838,0.18401,0.00053,0,0.00019292,2.6725e-05,-8.9785e-20,0,-0.27378,-0.0073642,-0.011028,-0.010952,1,0.53,1,0.05,0
-0.0010778,-0.00037933,0.18552,0.000531,0,0.00019288,2.6689e-05,-8.6397e-20,0,-0.27215,-0.0079837,-0.010957,-0.010886,1,0.531,1,0.05,0
-0.0010765,-0.00038026,0.18702,0.000532,0,0.00019284,2.6652e-05,-8.6821e-20,0,-0.27051,-0.0085944,-0.010885,-0.01082,1,0.532,1,0.05,0
-0.001075,-0.00038116,0.18853,0.000533,0,0.00019281,2.6616e-05,-8.6609e-20,0,-0.26885,-0.0091962,-0.010812,-0.010754,1,0.533,1,0.05,0
-0.0010733,-0.00038204,0.19005,0.000534,0,0.00019277,2.658e-05,-8.8727e-20,0,-0.26717,-0.0097891,-0.010739,-0.010686,1,0.534,1,0.05,0
-0.0010714,-0.00038287,0.19157,0.000535,0,0.00019274,2.6544e-05,-8.9785e-20,0,-0.26544,-0.010373,-0.010664,-0.010617,1,0.535,1,0.05,0
-0.001069,-0.00038367,0.19311,0.000536,0,0.00019272,2.6508e-05,-8.915e-20,0,-0.26367,-0.010947,-0.010587,-0.010546,1,0.536,1,0.05,0
-0.0010662,-0.00038442,0.19465,0.000537,0,0.00019269,2.6472e-05,-8.7456e-20,0,-0.26182,-0.01151,-0.010507,-0.010472,1,0.537,1,0.05,0
-0.0010627,-0.0003851,0.19622,0.000538,0,0.00019268,2.6436e-05,-8.8938e-20,0,-0.25988,-0.012062,-0.010423,-0.010394,1,0.538,1,0.05,0
-0.0010585,-0.00038572,0.1978,0.000539,0,0.00019267,2.6401e-05,-8.6397e-20,0,-0.25783,-0.012603,-0.010335,-0.010312,1,0.539,1,0.05,0
-0.0010534,-0.00038626,0.1994,0.00054,0,0.00019266,2.6367e-05,-8.7033e-20,0,-0.25565,-0.01313,-0.010242,-0.010224,1,0.54,1,0.05,0
-0.0010473,-0.00038672,0.20103,0.000541,0,0.00019267,2.6332e-05,-8.7668e-20,0,-0.25333,-0.013644,-0.010144,-0.010131,1,0.541,1,0.05,0
-0.0010403,-0.00038708,0.20268,0.000542,0,0.00019268,2.6298e-05,-8.7033e-20,0,-0.25086,-0.014143,-0.01004,-0.010032,1,0.542,1,0.05,0
-0.0010323,-0.00038736,0.20435,0.000543,0,0.0001927,2.6265e-05,-8.5974e-20,0,-0.24826,-0.014629,-0.0099298,-0.0099277,1,0.543,1,0.05,0
-0.0010235,-0.00038754,0.20604,0.000544,0,0.00019273,2.6233e-05,-8.6397e-20,0,-0.24553,-0.0151,-0.0098152,-0.0098184,1,0.544,1,0.05,0
-0.0010139,-0.00038764,0.20774,0.000545,0,0.00019277,2.62e-05,-8.6397e-20,0,-0.24268,-0.015557,-0.0096962,-0.0097045,1,0.545,1,0.05,0
-0.0010036,-0.00038765,0.20945,0.000546,0,0.00019281,2.6169e-05,-8.7456e-20,0,-0.23975,-0.016001,-0.0095733,-0.0095868,1,0.546,1,0.05,0
-0.00099268,-0.00038758,0.21117,0.000547,0,0.00019286,2.6138e-05,-8.7668e-20,0,-0.23673,-0.01643,-0.0094474,-0.0094659,1,0.547,1,0.05,0
-0.00098126,-0.00038744,0.2129,0.000548,0,0.00019292,2.6107e-05,-8.6186e-20,0,-0.23364,-0.016847,-0.009319,-0.0093423,1,0.548,1,0.05,0
-0.0009694,-0.00038722,0.21464,0.000549,0,0.00019298,2.6077e-05,-8.6397e-20,0,-0.2305,-0.01725,-0.0091884,-0.0092165,1,0.549,1,0.05,0
-0.00095715,-0.00038694,0.2164,0.00055,0,0.00019304,2.6048e-05,-8.3856e-20,0,-0.22731,-0.017641,-0.009056,-0.0090889,1,0.55,1,0.05,0
-0.00094459,-0.00038658,0.21816,0.000551,0,0.0001931,2.6019e-05,-8.8515e-20,0,-0.22409,-0.01802,-0.0089225,-0.0089599,1,0.551,1,0.05,0
-0.00093177,-0.00038616,0.21994,0.000552,0,0.00019317,2.599e-05,-8.8303e-20,0,-0.22085,-0.018388,-0.0087879,-0.0088299,1,0.552,1,0.05,0
-0.00091873,-0.00038568,0.22173,0.000553,0,0.00019325,2.5962e-05,-8.5127e-20,0,-0.21758,-0.018744,-0.0086527,-0.008699,1,0.553,1,0.05,0
-0.00090551,-0.00038515,0.22353,0.000554,0,0.00019332,2.5934e-05,-8.7033e-20,0,-0.2143,-0.019089,-0.008517,-0.0085676,1,0.554,1,0.05,0
-0.00089212,-0.00038455,0.22535,0.000555,0,0.0001934,2.5907e-05,-8.555e-20,0,-0.211,-0.019424,-0.0083808,-0.0084357,1,0.555,1,0.05,0
-0.00087859,-0.0003839,0.22717,0.000556,0,0.00019348,2.588e-05,-8.555e-20,0,-0.2077,-0.019749,-0.0082445,-0.0083035,1,0.556,1,0.05,0
-0.00086495,-0.00038321,0.22901,0.000557,0,0.00019356,2.5853e-05,-8.6397e-20,0,-0.2044,-0.020064,-0.0081082,-0.0081712,1,0.557,1,0.05,0
-0.00085123,-0.00038247,0.23084,0.000558,0,0.00019364,2.5827e-05,-8.7244e-20,0,-0.20109,-0.020369,-0.007972,-0.008039,1,0.558,1,0.05,0
-0.00083744,-0.00038169,0.23268,0.000559,0,0.00019373,2.5801e-05,-8.6821e-20,0,-0.19779,-0.020665,-0.007836,-0.0079068,1,0.559,1,0.05,0
-0.00082354,-0.00038086,0.23454,0.00056,0,0.00019381,2.5775e-05,-8.5339e-20,0,-0.19449,-0.020952,-0.0076999,-0.0077745,1,0.56,1,0.05,0
-0.00080948,-0.00037998,0.23642,0.000561,0,0.0001939,2.5749e-05,-8.4492e-20,0,-0.19117,-0.02123,-0.0075634,-0.0076417,1,0.561,1,0.05,0
-0.00079527,-0.00037906,0.23831,0.000562,0,0.00019399,2.5724e-05,-8.5974e-20,0,-0.18784,-0.021499,-0.0074264,-0.0075084,1,0.562,1,0.05,0
-0.00078089,-0.00037808,0.24022,0.000563,0,0.00019409,2.5699e-05,-8.555e-20,0,-0.1845,-0.021759,-0.007289,-0.0073745,1,0.563,1,0.05,0
-0.00076636,-0.00037706,0.24215,0.000564,0,0.00019418,2.5674e-05,-8.7668e-20,0,-0.18114,-0.022011,-0.007151,-0.00724,1,0.564,1,0.05,0
-0.00075165,-0.00037599,0.2441,0.000565,0,0.00019428,2.565e-05,-8.4703e-20,0,-0.17776,-0.022254,-0.0070124,-0.0071048,1,0.565,1,0.05,0
-0.00073677,-0.00037488,0.24607,0.000566,0,0.00019438,2.5626e-05,-8.6397e-20,0,-0.17437,-0.022489,-0.0068733,-0.0069691,1,0.566,1,0.05,0
-0.00072173,-0.00037372,0.24806,0.000567,0,0.00019449,2.5602e-05,-8.5127e-20,0,-0.17096,-0.022716,-0.0067337,-0.0068327,1,0.567,1,0.05,0
-0.00070653,-0.00037253,0.25006,0.000568,0,0.0001946,2.5578e-05,-8.3009e-20,0,-0.16754,-0.022934,-0.0065935,-0.0066957,1,0.568,1,0.05,0
-0.00069118,-0.00037129,0.25207,0.000569,0,0.00019471,2.5555e-05,-8.6821e-20,0,-0.1641,-0.023145,-0.0064528,-0.0065581,1,0.569,1,0.05,0
-0.00067568,-0.00037001,0.2541,0.00057,0,0.00019482,2.5532e-05,-8.5974e-20,0,-0.16065,-0.023348,-0.0063116,-0.0064199,1,0.57,1,0.05,0
-0.00066004,-0.0003687,0.25614,0.000571,0,0.00019494,2.5509e-05,-8.428e-20,0,-0.15719,-0.023543,-0.00617,-0.0062813,1,0.571,1,0.05,0
-0.00064426,-0.00036735,0.2582,0.000572,0,0.00019506,2.5486e-05,-8.3856e-20,0,-0.15371,-0.023731,-0.0060281,-0.0061423,1,0.572,1,0.05,0
-0.00062839,-0.00036598,0.26026,0.000573,0,0.00019518,2.5464e-05,-8.555e-20,0,-0.15023,-0.023912,-0.005886,-0.006003,1,0.573,1,0.05,0
-0.00061244,-0.00036457,0.26232,0.000574,0,0.0001953,2.5442e-05,-8.3221e-20,0,-0.14675,-0.024086,-0.0057438,-0.0058637,1,0.574,1,0.05,0
-0.00059647,-0.00036315,0.26437,0.000575,0,0.00019543,2.542e-05,-8.3433e-20,0,-0.14327,-0.024253,-0.0056021,-0.0057246,1,0.575,1,0.05,0
-0.00058047,-0.00036171,0.26643,0.000576,0,0.00019556,2.5398e-05,-8.3433e-20,0,-0.1398,-0.024414,-0.0054606,-0.0055857,1,0.576,1,0.05,0
-0.00056441,-0.00036024,0.26849,0.000577,0,0.00019569,2.5376e-05,-8.3433e-20,0,-0.13633,-0.024568,-0.0053192,-0.0054468,1,0.577,1,0.05,0
-0.00054832,-0.00035875,0.27055,0.000578,0,0.00019582,2.5355e-05,-8.3856e-20,0,-0.13287,-0.024716,-0.0051781,-0.0053082,1,0.578,1,0.05,0
-0.00053219,-0.00035724,0.27261,0.000579,0,0.00019596,2.5334e-05,-8.3433e-20,0,-0.12941,-0.024858,-0.0050371,-0.0051696,1,0.579,1,0.05,0
-0.00051602,-0.00035572,0.27466,0.00058,0,0.0001961,2.5313e-05,-8.428e-20,0,-0.12595,-0.024994,-0.0048964,-0.0050312,1,0.58,1,0.05,0
-0.00049982,-0.00035417,0.27673,0.000581,0,0.00019624,2.5293e-05,-8.428e-20,0,-0.12249,-0.025123,-0.0047558,-0.0048929,1,0.581,1,0.05,0
-0.00048355,-0.0003526,0.2788,0.000582,0,0.00019638,2.5272e-05,-8.5127e-20,0,-0.11903,-0.025247,-0.0046152,-0.0047545,1,0.582,1,0.05,0
-0.00046721,-0.000351,0.28087,0.000583,0,0.00019653,2.5252e-05,-8.3433e-20,0,-0.11557,-0.025365,-0.0044746,-0.004616,1,0.583,1,0.05,0
-0.00045082,-0.00034939,0.28295,0.000584,0,0.00019667,2.5232e-05,-8.428e-20,0,-0.11211,-0.025476,-0.004334,-0.0044774,1,0.584,1,0.05,0
-0.00043436,-0.00034776,0.28504,0.000585,0,0.00019682,2.5212e-05,-8.5127e-20,0,-0.10864,-0.025582,-0.0041933,-0.0043387,1,0.585,1,0.05,0
-0.00041783,-0.0003461,0.28714,0.000586,0,0.00019698,2.5193e-05,-8.2586e-20,0,-0.10517,-0.025683,-0.0040525,-0.0041999,1,0.586,1,0.05,0
-0.00040124,-0.00034442,0.28924,0.000587,0,0.00019713,2.5173e-05,-8.3856e-20,0,-0.1017,-0.025778,-0.0039116,-0.0040609,1,0.587,1,0.05,0
-0.00038458,-0.00034273,0.29135,0.000588,0,0.00019729,2.5154e-05,-8.4492e-20,0,-0.098222,-0.025867,-0.0037707,-0.0039218,1,0.588,1,0.05,0
-0.00036785,-0.00034102,0.29346,0.000589,0,0.00019745,2.5135e-05,-8.3433e-20,0,-0.094741,-0.025951,-0.0036296,-0.0037825,1,0.589,1,0.05,0
-0.00035106,-0.00033928,0.29559,0.00059,0,0.00019762,2.5116e-05,-8.3856e-20,0,-0.091255,-0.02603,-0.0034884,-0.0036431,1,0.59,1,0.05,0
-0.0003342,-0.00033753,0.29773,0.000591,0,0.00019779,2.5098e-05,-8.3433e-20,0,-0.087765,-0.026103,-0.0033471,-0.0035034,1,0.591,1,0.05,0
-0.00031726,-0.00033576,0.29987,0.000592,0,0.00019796,2.5079e-05,-8.2374e-20,0,-0.084269,-0.026172,-0.0032056,-0.0033636,1,0.592,1,0.05,0
-0.00030026,-0.00033397,0.30202,0.000593,0,0.00019813,2.5061e-05,-8.2374e-20,0,-0.080768,-0.026235,-0.003064,-0.0032235,1,0.593,1,0.05,0
-0.00028319,-0.00033216,0.30419,0.000594,0,0.00019831,2.5043e-05,-8.3856e-20,0,-0.077261,-0.026293,-0.0029221,-0.0030832,1,0.594,1,0.05,0
-0.00026604,-0.00033034,0.30636,0.000595,0,0.00019849,2.5025e-05,-8.4492e-20,0,-0.073748,-0.026346,-0.0027801,-0.0029426,1,0.595,1,0.05,0
-0.00024883,-0.0003285,0.30855,0.000596,0,0.00019867,2.5007e-05,-8.2374e-20,0,-0.070228,-0.026394,-0.0026379,-0.0028018,1,0.596,1,0.05,0
-0.00023154,-0.00032664,0.31074,0.000597,0,0.00019886,2.4989e-05,-8.4068e-20,0,-0.066701,-0.026438,-0.0024954,-0.0026607,1,0.597,1,0.05,0
-0.00021417,-0.00032476,0.31295,0.000598,0,0.00019905,2.4972e-05,-8.428e-20,0,-0.063168,-0.026477,-0.0023527,-0.0025194,1,0.598,1,0.05,0
-0.00019674,-0.00032287,0.31516,0.000599,0,0.00019924,2.4955e-05,-8.2162e-20,0,-0.059627,-0.026511,-0.0022098,-0.0023777,1,0.599,1,0.05,0
-0.00017924,-0.00032097,0.31739,0.0006,0,0.00019944,2.4938e-05,-8.3645e-20,0,-0.05608,-0.02654,-0.0020666,-0.0022358,1,0.6,1,0.05,0
-0.00016166,-0.00031904,0.31963,0.000601,0,0.00019964,2.4921e-05,-8.2586e-20,0,-0.052524,-0.026565,-0.0019232,-0.0020936,1,0.601,1,0.05,0
-0.000144,-0.00031711,0.32188,0.000602,0,0.00019984,2.4904e-05,-8.3856e-20,0,-0.048961,-0.026585,-0.0017795,-0.0019511,1,0.602,1,0.05,0
-0.00012628,-0.00031515,0.32415,0.000603,0,0.00020005,2.4888e-05,-8.2797e-20,0,-0.04539,-0.026601,-0.0016356,-0.0018082,1,0.603,1,0.05,0
-0.00010849,-0.00031319,0.32642,0.000604,0,0.00020026,2.4871e-05,-8.3433e-20,0,-0.04181,-0.026613,-0.0014913,-0.001665,1,0.604,1,0.05,0
-9.0612e-05,-0.0003112,0.32871,0.000605,0,0.00020048,2.4855e-05,-8.1739e-20,0,-0.038222,-0.02662,-0.0013468,-0.0015215,1,0.605,1,0.05,0
-7.2659e-05,-0.00030921,0.33101,0.000606,0,0.0002007,2.4839e-05,-8.2162e-20,0,-0.034624,-0.026623,-0.0012019,-0.0013776,1,0.606,1,0.05,0
-5.463e-05,-0.00030719,0.33333,0.000607,0,0.00020092,2.4823e-05,-8.2162e-20,0,-0.031016,-0.026621,-0.0010566,-0.0012333,1,0.607,1,0.05,0
-3.6521e-05,-0.00030517,0.33565,0.000608,0,0.00020114,2.4808e-05,-8.0892e-20,0,-0.027399,-0.026616,-0.00091104,-0.0010886,1,0.608,1,0.05,0
-1.8333e-05,-0.00030313,0.33799,0.000609,0,0.00020138,2.4792e-05,-8.428e-20,0,-0.023771,-0.026606,-0.00076506,-0.00094345,1,0.609,1,0.05,0
-6.5999e-08,-0.00030107,0.34035,0.00061,0,0.00020161,2.4777e-05,-8.3433e-20,0,-0.020133,-0.026592,-0.00061871,-0.00079793,1,0.61,1,0.05,0
1.8279e-05,-0.00029901,0.34271,0.000611,0,0.00020185,2.4762e-05,-8.3433e-20,0,-0.016484,-0.026575,-0.00047199,-0.00065199,1,0.611,1,0.05,0
3.6702e-05,-0.00029693,0.3451,0.000612,0,0.00020209,2.4747e-05,-8.428e-20,0,-0.012825,-0.026553,-0.00032487,-0.00050562,1,0.612,1,0.05,0
5.5203e-05,-0.00029483,0.34749,0.000613,0,0.00020234,2.4732e-05,-8.0468e-20,0,-0.0091545,-0.026528,-0.00017737,-0.00035883,1,0.613,1,0.05,0
7.3781e-05,-0.00029273,0.3499,0.000614,0,0.0002026,2.4717e-05,-8.2586e-20,0,-0.0054737,-0.026498,-2.9471e-05,-0.00021161,1,0.614,1,0.05,0
9.2433e-05,-0.00029061,0.35232,0.000615,0,0.00020285,2.4703e-05,-8.2162e-20,0,-0.0017823,-0.026465,0.00011882,-6.3962e-05,1,0.615,1,0.05,0
0.00011115,-0.00028848,0.35475,0.000616,0,0.00020311,2.4688e-05,-8.2586e-20,0,0.0019186,-0.026428,0.00026744,8.406e-05,1,0.616,1,0.05,0
0.00012994,-0.00028634,0.3572,0.000617,0,0.00020338,2.4674e-05,-8.2797e-20,0,0.0056288,-0.026388,0.00041641,0.00023245,1,0.617,1,0.05,0
0.0001488,-0.00028419,0.35966,0.000618,0,0.00020365,2.466e-05,-8.1527e-20,0,0.0093501,-0.026344,0.00056578,0.00038128,1,0.618,1,0.05,0
0.00016773,-0.00028203,0.36213,0.000619,0,0.00020393,2.4646e-05,-8.0892e-20,0,0.013083,-0.026296,0.00071556,0.00053057,1,0.619,1,0.05,0
0.00018674,-0.00027986,0.36462,0.00062,0,0.00020421,2.4633e-05,-8.2162e-20,0,0.016826,-0.026245,0.00086574,0.00068028,1,0.62,1,0.05,0
0.00020581,-0.00027768,0.36712,0.000621,0,0.00020449,2.4619e-05,-8.1527e-20,0,0.02058,-0.02619,0.0010163,0.00083041,1,0.621,1,0.05,0
0.00022495,-0.00027548,0.36963,0.000622,0,0.00020478,2.4606e-05,-8.2162e-20,0,0.024345,-0.026132,0.0011673,0.00098101,1,0.622,1,0.05,0
0.00024417,-0.00027328,0.37216,0.000623,0,0.00020508,2.4593e-05,-8.0892e-20,0,0.028122,-0.02607,0.0013188,0.0011321,1,0.623,1,0.05,0
0.00026346,-0.00027107,0.3747,0.000624,0,0.00020538,2.458e-05,-8.3433e-20,0,0.031911,-0.026005,0.0014706,0.0012836,1,0.624,1,0.05,0
-0.00046318,-0.00030045,0.37765,0.000625,0,0.00019666,2.4574e-05,-8.2586e-20,0,-0.093229,-0.025862,-0.0035366,-0.0037208,1,0.625,1,0.05,0
0.00024606,-0.00026891,0.37989,0.000626,0,0.00020526,2.4557e-05,-8.2162e-20,0,0.030022,-0.02584,0.0013947,0.001208,1,0.626,1,0.05,0
-0.00043191,-0.00029599,0.38283,0.000627,0,0.00019703,2.4549e-05,-8.1739e-20,0,-0.08706,-0.025714,-0.0032896,-0.0034741,1,0.627,1,0.05,0
0.0002839,-0.00026414,0.38509,0.000628,0,0.0002058,2.4531e-05,-8.195e-20,0,0.037583,-0.025689,0.0016974,0.0015104,1,0.628,1,0.05,0
-0.00039843,-0.00029139,0.38807,0.000629,0,0.00019744,2.4524e-05,-8.195e-20,0,-0.08053,-0.025558,-0.0030281,-0.003213,1,0.629,1,0.05,0
0.00032194,-0.00025933,0.39034,0.00063,0,0.00020636,2.4507e-05,-8.0468e-20,0,0.045174,-0.025527,0.0020012,0.001814,1,0.63,1,0.05,0
-0.00036455,-0.00028676,0.39335,0.000631,0,0.00019786,2.4499e-05,-7.9409e-20,0,-0.073939,-0.025391,-0.0027645,-0.0029494,1,0.631,1,0.05,0
-0.00037452,-0.00028556,0.39604,0.000632,0,0.00019772,2.4489e-05,-8.0468e-20,0,-0.075226,-0.025286,-0.0028166,-0.0030009,1,0.632,1,0.05,0
-0.00035835,-0.00028311,0.39872,0.000633,0,0.00019789,2.4477e-05,-8.1527e-20,0,-0.07201,-0.025194,-0.0026881,-0.0028723,1,0.633,1,0.05,0
-0.00034109,-0.0002806,0.40142,0.000634,0,0.00019808,2.4465e-05,-8.0892e-20,0,-0.068613,-0.025102,-0.0025524,-0.0027364,1,0.634,1,0.05,0
-0.00032374,-0.00027809,0.40412,0.000635,0,0.00019828,2.4453e-05,-8.3009e-20,0,-0.065202,-0.025007,-0.0024161,-0.0026001,1,0.635,1,0.05,0
-0.00030634,-0.00027558,0.40683,0.000636,0,0.00019848,2.4441e-05,-8.0468e-20,0,-0.061785,-0.02491,-0.0022797,-0.0024634,1,0.636,1,0.05,0
-0.00028889,-0.00027306,0.40955,0.000637,0,0.00019868,2.443e-05,-8.0892e-20,0,-0.058362,-0.024811,-0.002143,-0.0023265,1,0.637,1,0.05,0
-0.0002714,-0.00027054,0.41228,0.000638,0,0.00019889,2.4418e-05,-8.0892e-20,0,-0.054932,-0.02471,-0.0020061,-0.0021894,1,0.638,1,0.05,0
-0.00025386,-0.00026803,0.41502,0.000639,0,0.00019911,2.4407e-05,-8.195e-20,0,-0.051496,-0.024607,-0.001869,-0.002052,1,0.639,1,0.05,0
-0.00023628,-0.00026551,0.41776,0.00064,0,0.00019933,2.4395e-05,-8.1527e-20,0,-0.048055,-0.024501,-0.0017318,-0.0019144,1,0.64,1,0.05,0
-0.00021866,-0.00026299,0.42052,0.000641,0,0.00019955,2.4384e-05,-8.3221e-20,0,-0.044608,-0.024394,-0.0015943,-0.0017766,1,0.641,1,0.05,0
-0.000201,-0.00026047,0.42328,0.000642,0,0.00019978,2.4373e-05,-8.0468e-20,0,-0.041156,-0.024285,-0.0014567,-0.0016386,1,0.642,1,0.05,0
-0.00018331,-0.00025795,0.42604,0.000643,0,0.00020001,2.4362e-05,-8.0892e-20,0,-0.0377,-0.024173,-0.0013189,-0.0015003,1,0.643,1,0.05,0
-0.00016559,-0.00025543,0.42882,0.000644,0,0.00020024,2.4351e-05,-8.3009e-20,0,-0.034238,-0.02406,-0.0011809,-0.0013619,1,0.644,1,0.05,0
-0.00014785,-0.00025292,0.4316,0.000645,0,0.00020049,2.434e-05,-8.0256e-20,0,-0.030773,-0.023945,-0.0010429,-0.0012234,1,0.645,1,0.05,0
-0.00013007,-0.00025041,0.43438,0.000646,0,0.00020073,2.433e-05,-7.9833e-20,0,-0.027303,-0.023828,-0.00090464,-0.0010846,1,0.646,1,0.05,0
-0.00011228,-0.0002479,0.43717,0.000647,0,0.00020098,2.4319e-05,-8.0892e-20,0,-0.023829,-0.02371,-0.00076629,-0.00094573,1,0.647,1,0.05,0
-9.4458e-05,-0.00024539,0.43996,0.000648,0,0.00020124,2.4309e-05,-8.0045e-20,0,-0.020351,-0.02359,-0.00062783,-0.0008067,1,0.648,1,0.05,0
-7.6621e-05,-0.00024289,0.44276,0.000649,0,0.0002015,2.4299e-05,-8.3009e-20,0,-0.01687,-0.023468,-0.00048925,-0.00066751,1,0.649,1,0.05,0
-5.8768e-05,-0.00024039,0.44556,0.00065,0,0.00020177,2.4288e-05,-8.0045e-20,0,-0.013386,-0.023345,-0.00035057,-0.00052821,1,0.65,1,0.05,0
-4.09e-05,-0.0002379,0.44837,0.000651,0,0.00020204,2.4279e-05,-7.9833e-20,0,-0.0098987,-0.02322,-0.00021179,-0.00038877,1,0.651,1,0.05,0
-2.3018e-05,-0.00023541,0.45118,0.000652,0,0.00020232,2.4269e-05,-7.8774e-20,0,-0.0064083,-0.023094,-7.2913e-05,-0.00024921,1,0.652,1,0.05,0
-5.1268e-06,-0.00023292,0.45399,0.000653,0,0.0002026,2.4259e-05,-7.7927e-20,0,-0.0029151,-0.022966,6.6044e-05,-0.00010955,1,0.653,1,0.05,0
1.2774e-05,-0.00023044,0.45681,0.000654,0,0.00020288,2.4249e-05,-8.0045e-20,0,0.00058079,-0.022837,0.00020509,3.0218e-05,1,0.654,1,0.05,0
3.0683e-05,-0.00022797,0.45962,0.000655,0,0.00020318,2.424e-05,-7.9621e-20,0,0.0040793,-0.022706,0.00034421,0.00017009,1,0.655,1,0.05,0
4.8597e-05,-0.0002255,0.46245,0.000656,0,0.00020347,2.4231e-05,-8.0468e-20,0,0.0075802,-0.022574,0.0004834,0.00031006,1,0.656,1,0.05,0
6.6516e-05,-0.00022304,0.46527,0.000657,0,0.00020378,2.4222e-05,-8.0045e-20,0,0.011083,-0.022441,0.00062266,0.00045012,1,0.657,1,0.05,0
8.4436e-05,-0.00022058,0.4681,0.000658,0,0.00020409,2.4213e-05,-8.0468e-20,0,0.014589,-0.022306,0.00076199,0.00059026,1,0.658,1,0.05,0
0.00010236,-0.00021813,0.47092,0.000659,0,0.0002044,2.4204e-05,-8.0045e-20,0,0.018096,-0.02217,0.00090138,0.00073049,1,0.659,1,0.05,0
0.00012028,-0.00021568,0.47375,0.00066,0,0.00020472,2.4195e-05,-8.1739e-20,0,0.021606,-0.022033,0.0010408,0.0008708,1,0.66,1,0.05,0
0.0001382,-0.00021324,0.47659,0.000661,0,0.00020505,2.4187e-05,-8.0256e-20,0,0.025117,-0.021895,0.0011803,0.0010112,1,0.661,1,0.05,0
0.00015611,-0.00021081,0.47942,0.000662,0,0.00020538,2.4178e-05,-8.0256e-20,0,0.02863,-0.021756,0.0013199,0.0011516,1,0.662,1,0.05,0
0.00017402,-0.00020839,0.48226,0.000663,0,0.00020572,2.417e-05,-8.0468e-20,0,0.032144,-0.021615,0.0014595,0.0012921,1,0.663,1,0.05,0
0.00019192,-0.00020597,0.48509,0.000664,0,0.00020606,2.4162e-05,-8.0892e-20,0,0.03566,-0.021474,0.0015991,0.0014327,1,0.664,1,0.05,0
0.00020982,-0.00020356,0.48793,0.000665,0,0.00020642,2.4154e-05,-7.8774e-20,0,0.039177,-0.021331,0.0017388,0.0015733,1,0.665,1,0.05,0
0.0002277,-0.00020116,0.49077,0.000666,0,0.00020677,2.4146e-05,-7.9621e-20,0,0.042696,-0.021188,0.0018785,0.001714,1,0.666,1,0.05,0
0.00024557,-0.00019876,0.49361,0.000667,0,0.00020714,2.4138e-05,-8.0045e-20,0,0.046216,-0.021043,0.0020182,0.0018547,1,0.667,1,0.05,0
0.00026343,-0.00019638,0.49645,0.000668,0,0.0002075,2.4131e-05,-7.9621e-20,0,0.049737,-0.020898,0.002158,0.0019955,1,0.668,1,0.05,0
0.00028128,-0.000194,0.49929,0.000669,0,0.00020788,2.4124e-05,-8.1527e-20,0,0.053259,-0.020751,0.0022977,0.0021363,1,0.669,1,0.05,0
0.00029911,-0.00019162,0.50214,0.00067,0,0.00020826,2.4117e-05,-7.9198e-20,0,0.056781,-0.020604,0.0024375,0.0022771,1,0.67,1,0.05,0
0.00031692,-0.00018926,0.50498,0.000671,0,0.00020865,2.411e-05,-7.8139e-20,0,0.060305,-0.020456,0.0025774,0.0024179,1,0.671,1,0.05,0
0.00033471,-0.00018691,0.50782,0.000672,0,0.00020905,2.4103e-05,-8.0045e-20,0,0.063829,-0.020307,0.0027172,0.0025588,1,0.672,1,0.05,0
0.00035248,-0.00018456,0.51067,0.000673,0,0.00020945,2.4096e-05,-8.0468e-20,0,0.067353,-0.020157,0.002857,0.0026997,1,0.673,1,0.05,0
0.00037024,-0.00018222,0.51351,0.000674,0,0.00020986,2.409e-05,-7.9198e-20,0,0.070878,-0.020007,0.0029968,0.0028406,1,0.674,1,0.05,0
0.00038796,-0.00017989,0.51635,0.000675,0,0.00021028,2.4084e-05,-8.0045e-20,0,0.074403,-0.019856,0.0031367,0.0029815,1,0.675,1,0.05,0
0.00040567,-0.00017757,0.5192,0.000676,0,0.0002107,2.4078e-05,-7.9621e-20,0,0.077928,-0.019704,0.0032765,0.0031225,1,0.676,1,0.05,0
0.00042334,-0.00017526,0.52204,0.000677,0,0.00021113,2.4072e-05,-7.9833e-20,0,0.081453,-0.019552,0.0034163,0.0032634,1,0.677,1,0.05,0
0.00044099,-0.00017296,0.52488,0.000678,0,0.00021157,2.4066e-05,-7.8351e-20,0,0.084978,-0.019398,0.0035561,0.0034043,1,0.678,1,0.05,0
0.00045861,-0.00017067,0.52773,0.000679,0,0.00021202,2.406e-05,-7.9621e-20,0,0.088503,-0.019245,0.0036958,0.0035452,1,0.679,1,0.05,0
0.0004762,-0.00016838,0.53057,0.00068,0,0.00021247,2.4055e-05,-7.8562e-20,0,0.092027,-0.01909,0.0038356,0.0036861,1,0.68,1,0.05,0
0.00049376,-0.00016611,0.53341,0.000681,0,0.00021294,2.405e-05,-7.9621e-20,0,0.09555,-0.018936,0.0039753,0.003827,1,0.681,1,0.05,0
0.00051128,-0.00016384,0.53625,0.000682,0,0.0002134,2.4045e-05,-7.9621e-20,0,0.099074,-0.01878,0.004115,0.0039678,1,0.682,1,0.05,0
0.00052877,-0.00016159,0.53909,0.000683,0,0.00021388,2.404e-05,-8.0256e-20,0,0.1026,-0.018625,0.0042546,0.0041086,1,0.683,1,0.05,0
0.00054622,-0.00015934,0.54192,0.000684,0,0.00021437,2.4036e-05,-7.9198e-20,0,0.10612,-0.018468,0.0043942,0.0042494,1,0.684,1,0.05,0
0.00056364,-0.0001571,0.54476,0.000685,0,0.00021486,2.4031e-05,-7.9621e-20,0,0.10964,-0.018312,0.0045337,0.0043901,1,0.685,1,0.05,0
0.00058101,-0.00015488,0.54759,0.000686,0,0.00021536,2.4027e-05,-8.1103e-20,0,0.11316,-0.018155,0.0046732,0.0045308,1,0.686,1,0.05,0
0.00059835,-0.00015266,0.55043,0.000687,0,0.00021587,2.4023e-05,-7.9409e-20,0,0.11667,-0.017997,0.0048126,0.0046714,1,0.687,1,0.05,0
0.00061564,-0.00015045,0.55326,0.000688,0,0.00021639,2.4019e-05,-7.8562e-20,0,0.12019,-0.017839,0.004952,0.004812,1,0.688,1,0.05,0
0.00063289,-0.00014826,0.55609,0.000689,0,0.00021692,2.4016e-05,-7.9198e-20,0,0.12371,-0.017681,0.0050913,0.0049525,1,0.689,1,0.05,0
0.0006501,-0.00014607,0.55892,0.00069,0,0.00021745,2.4012e-05,-7.8774e-20,0,0.12722,-0.017523,0.0052305,0.0050929,1,0.69,1,0.05,0
0.00066726,-0.0001439,0.56174,0.000691,0,0.000218,2.4009e-05,-7.9833e-20,0,0.13073,-0.017364,0.0053696,0.0052333,1,0.691,1,0.05,0
0.00068437,-0.00014173,0.56456,0.000692,0,0.00021855,2.4006e-05,-8.0468e-20,0,0.13424,-0.017205,0.0055087,0.0053735,1,0.692,1,0.05,0
0.00070143,-0.00013957,0.56738,0.000693,0,0.00021911,2.4004e-05,-8.0045e-20,0,0.13775,-0.017046,0.0056476,0.0055137,1,0.693,1,0.05,0
0.00071845,-0.00013743,0.5702,0.000694,0,0.00021968,2.4001e-05,-7.8986e-20,0,0.14125,-0.016887,0.0057865,0.0056538,1,0.694,1,0.05,0
0.00073541,-0.0001353,0.57302,0.000695,0,0.00022026,2.3999e-05,-8.0468e-20,0,0.14475,-0.016728,0.0059253,0.0057938,1,0.695,1,0.05,0
0.00075232,-0.00013317,0.57583,0.000696,0,0.00022085,2.3997e-05,-8.0045e-20,0,0.14825,-0.016568,0.0060639,0.0059337,1,0.696,1,0.05,0
0.00076917,-0.00013106,0.57864,0.000697,0,0.00022145,2.3995e-05,-8.0892e-20,0,0.15175,-0.016409,0.0062024,0.0060735,1,0.697,1,0.05,0
0.00078597,-0.00012896,0.58145,0.000698,0,0.00022206,2.3994e-05,-7.9621e-20,0,0.15524,-0.016249,0.0063409,0.0062132,1,0.698,1,0.05,0
0.00080271,-0.00012687,0.58425,0.000699,0,0.00022268,2.3993e-05,-8.0045e-20,0,0.15873,-0.016089,0.0064792,0.0063528,1,0.699,1,0.05,0
0.0008194,-0.00012478,0.58705,0.0007,0,0.00022331,2.3992e-05,-7.9621e-20,0,0.16222,-0.01593,0.0066173,0.0064922,1,0.7,1,0.05,0
0.00036594,-0.00014337,0.59023,0.000701,0,0.00021435,2.4004e-05,-7.9409e-20,0,0.07523,-0.015694,0.0031309,0.0030131,1,0.701,1,0.05,0
0.00076416,-0.00012473,0.59273,0.000702,0,0.00022273,2.4002e-05,-8.0468e-20,0,0.15241,-0.015543,0.0062171,0.0060994,1,0.702,1,0.05,0
0.000389,-0.0001396,0.59584,0.000703,0,0.00021521,2.4007e-05,-8.2586e-20,0,0.080093,-0.015347,0.0033209,0.0032074,1,0.703,1,0.05,0
0.0007931,-0.00012062,0.59832,0.000704,0,0.00022386,2.4003e-05,-7.9621e-20,0,0.15864,-0.015212,0.006463,0.0063486,1,0.704,1,0.05,0
0.00042224,-0.00013529,0.60142,0.000705,0,0.00021631,2.4007e-05,-8.0045e-20,0,0.086889,-0.015026,0.0035898,0.0034791,1,0.705,1,0.05,0
0.0008236,-0.00011644,0.60389,0.000706,0,0.00022506,2.4003e-05,-7.8986e-20,0,0.16519,-0.014892,0.0067219,0.0066102,1,0.706,1,0.05,0
0.00045558,-0.00013101,0.60699,0.000707,0,0.00021745,2.4007e-05,-8.1315e-20,0,0.093726,-0.014709,0.0038605,0.0037524,1,0.707,1,0.05,0
0.00085377,-0.00011232,0.60945,0.000708,0,0.00022631,2.4004e-05,-8.0045e-20,0,0.17169,-0.014575,0.0069793,0.0068703,1,0.708,1,0.05,0
0.00048876,-0.00012678,0.61253,0.000709,0,0.00021863,2.4008e-05,-7.9621e-20,0,0.10056,-0.014394,0.0041312,0.0040257,1,0.709,1,0.05,0
0.0004488,-0.00012733,0.61536,0.00071,0,0.00021797,2.4017e-05,-8.1103e-20,0,0.093073,-0.014198,0.0038269,0.003726,1,0.71,1,0.05,0
0.00045632,-0.00012563,0.61814,0.000711,0,0.00021834,2.4021e-05,-8.0045e-20,0,0.094802,-0.014022,0.0038932,0.003795,1,0.711,1,0.05,0
0.00047082,-0.00012356,0.6209,0.000712,0,0.00021887,2.4023e-05,-7.9621e-20,0,0.097872,-0.013859,0.0040141,0.0039177,1,0.712,1,0.05,0
0.0004863,-0.00012143,0.62366,0.000713,0,0.00021943,2.4025e-05,-8.0468e-20,0,0.10113,-0.013701,0.0041429,0.004048,1,0.713,1,0.05,0
0.00050186,-0.00011932,0.62641,0.000714,0,0.00022001,2.4026e-05,-8.1315e-20,0,0.10441,-0.013546,0.0042725,0.004179,1,0.714,1,0.05,0
0.00051737,-0.00011721,0.62916,0.000715,0,0.0002206,2.4027e-05,-7.9833e-20,0,0.10769,-0.013392,0.0044021,0.00431,1,0.715,1,0.05,0
0.00053282,-0.00011512,0.6319,0.000716,0,0.00022119,2.4028e-05,-8.1739e-20,0,0.11096,-0.013238,0.0045314,0.0044407,1,0.716,1,0.05,0
0.0005482,-0.00011304,0.63464,0.000717,0,0.0002218,2.403e-05,-7.9833e-20,0,0.11422,-0.013086,0.0046605,0.0045711,1,0.717,1,0.05,0
0.0005635,-0.00011098,0.63737,0.000718,0,0.00022242,2.4032e-05,-7.9621e-20,0,0.11748,-0.012935,0.0047893,0.0047013,1,0.718,1,0.05,0
0.00057874,-0.00010894,0.64009,0.000719,0,0.00022304,2.4034e-05,-8.1739e-20,0,0.12073,-0.012784,0.0049178,0.0048313,1,0.719,1,0.05,0
0.0005939,-0.00010691,0.64281,0.00072,0,0.00022368,2.4036e-05,-7.8774e-20,0,0.12397,-0.012634,0.0050461,0.0049609,1,0.72,1,0.05,0
0.00060899,-0.00010489,0.64552,0.000721,0,0.00022433,2.4038e-05,-7.9621e-20,0,0.12721,-0.012485,0.0051741,0.0050904,1,0.721,1,0.05,0
0.00062401,-0.00010289,0.64823,0.000722,0,0.00022499,2.404e-05,-8.1527e-20,0,0.13044,-0.012336,0.0053019,0.0052195,1,0.722,1,0.05,0
0.00063896,-0.0001009,0.65093,0.000723,0,0.00022566,2.4043e-05,-8.0256e-20,0,0.13367,-0.012189,0.0054294,0.0053485,1,0.723,1,0.05,0
0.00065383,-9.8933e-05,0.65362,0.000724,0,0.00022635,2.4046e-05,-7.9409e-20,0,0.13688,-0.012042,0.0055567,0.0054771,1,0.724,1,0.05,0
0.00066863,-9.6977e-05,0.6563,0.000725,0,0.00022704,2.4049e-05,-7.9198e-20,0,0.1401,-0.011896,0.0056837,0.0056055,1,0.725,1,0.05,0
0.00068336,-9.5035e-05,0.65898,0.000726,0,0.00022775,2.4052e-05,-8.1315e-20,0,0.1433,-0.011751,0.0058104,0.0057336,1,0.726,1,0.05,0
0.00069801,-9.3107e-05,0.66166,0.000727,0,0.00022847,2.4056e-05,-8.1527e-20,0,0.1465,-0.011606,0.0059369,0.0058615,1,0.727,1,0.05,0
0.00071259,-9.1194e-05,0.66432,0.000728,0,0.0002292,2.4059e-05,-8.0045e-20,0,0.1497,-0.011462,0.0060633,0.0059892,1,0.728,1,0.05,0
0.00072709,-8.9295e-05,0.66698,0.000729,0,0.00022995,2.4063e-05,-8.1315e-20,0,0.15288,-0.011319,0.0061893,0.0061167,1,0.729,1,0.05,0
0.00074151,-8.7412e-05,0.66963,0.00073,0,0.0002307,2.4067e-05,-7.9621e-20,0,0.15606,-0.011177,0.0063151,0.0062438,1,0.73,1,0.05,0
0.00075585,-8.5545e-05,0.67227,0.000731,0,0.00023147,2.4071e-05,-7.8986e-20,0,0.15924,-0.011036,0.0064405,0.0063705,1,0.731,1,0.05,0
0.0007701,-8.3692e-05,0.67491,0.000732,0,0.00023225,2.4076e-05,-8.1527e-20,0,0.1624,-0.010896,0.0065656,0.006497,1,0.732,1,0.05,0
0.00078427,-8.1855e-05,0.67753,0.000733,0,0.00023305,2.4081e-05,-8.0892e-20,0,0.16555,-0.010756,0.0066904,0.0066231,1,0.733,1,0.05,0
0.00079835,-8.0033e-05,0.68015,0.000734,0,0.00023386,2.4086e-05,-8.2162e-20,0,0.1687,-0.010617,0.0068148,0.0067489,1,0.734,1,0.05,0
0.00081235,-7.8226e-05,0.68275,0.000735,0,0.00023468,2.4091e-05,-7.8351e-20,0,0.17184,-0.010479,0.0069389,0.0068743,1,0.735,1,0.05,0
0.00082625,-7.6433e-05,0.68535,0.000736,0,0.00023552,2.4097e-05,-7.9409e-20,0,0.17497,-0.010343,0.0070627,0.0069994,1,0.736,1,0.05,0
0.00084007,-7.4656e-05,0.68794,0.000737,0,0.00023637,2.4102e-05,-8.0045e-20,0,0.17809,-0.010206,0.0071862,0.0071242,1,0.737,1,0.05,0
0.0008538,-7.2894e-05,0.69052,0.000738,0,0.00023723,2.4108e-05,-8.0256e-20,0,0.1812,-0.010071,0.0073093,0.0072485,1,0.738,1,0.05,0
0.00086744,-7.1146e-05,0.69309,0.000739,0,0.00023811,2.4115e-05,-7.9833e-20,0,0.1843,-0.0099369,0.0074321,0.0073726,1,0.739,1,0.05,0
0.000881,-6.9413e-05,0.69565,0.00074,0,0.000239,2.4121e-05,-8.0468e-20,0,0.1874,-0.0098035,0.0075545,0.0074962,1,0.74,1,0.05,0
0.00089446,-6.7695e-05,0.6982,0.000741,0,0.00023991,2.4128e-05,-8.0045e-20,0,0.19048,-0.0096709,0.0076765,0.0076195,1,0.741,1,0.05,0
0.00090783,-6.5991e-05,0.70074,0.000742,0,0.00024083,2.4135e-05,-7.9621e-20,0,0.19356,-0.0095393,0.0077983,0.0077424,1,0.742,1,0.05,0
0.00092111,-6.4302e-05,0.70328,0.000743,0,0.00024177,2.4142e-05,-7.9621e-20,0,0.19662,-0.0094086,0.0079196,0.007865,1,0.743,1,0.05,0
0.00093429,-6.2627e-05,0.7058,0.000744,0,0.00024272,2.415e-05,-8.0892e-20,0,0.19968,-0.0092789,0.0080406,0.0079871,1,0.744,1,0.05,0
0.00094739,-6.0966e-05,0.70831,0.000745,0,0.00024369,2.4158e-05,-8.068e-20,0,0.20272,-0.0091501,0.0081612,0.0081089,1,0.745,1,0.05,0
0.00096039,-5.932e-05,0.71082,0.000746,0,0.00024467,2.4166e-05,-8.0892e-20,0,0.20576,-0.0090222,0.0082815,0.0082303,1,0.746,1,0.05,0
0.0009733,-5.7688e-05,0.71331,0.000747,0,0.00024567,2.4175e-05,-7.8351e-20,0,0.20879,-0.0088953,0.0084014,0.0083513,1,0.747,1,0.05,0
0.00098612,-5.607e-05,0.7158,0.000748,0,0.00024669,2.4183e-05,-8.0468e-20,0,0.2118,-0.0087693,0.0085209,0.0084719,1,0.748,1,0.05,0
0.00099884,-5.4466e-05,0.71827,0.000749,0,0.00024772,2.4192e-05,-8.1739e-20,0,0.21481,-0.0086443,0.00864,0.0085921,1,0.749,1,0.05,0
0.0010115,-5.2876e-05,0.72073,0.00075,0,0.00024877,2.4202e-05,-8.1527e-20,0,0.21781,-0.0085203,0.0087587,0.0087119,1,0.75,1,0.05,0
0.001024,-5.13e-05,0.72319,0.000751,0,0.00024984,2.4211e-05,-7.9621e-20,0,0.22079,-0.0083973,0.0088771,0.0088313,1,0.751,1,0.05,0
0.0010364,-4.9738e-05,0.72563,0.000752,0,0.00025093,2.4221e-05,-8.0892e-20,0,0.22377,-0.0082753,0.008995,0.0089502,1,0.752,1,0.05,0
0.0010488,-4.819e-05,0.72807,0.000753,0,0.00025203,2.4231e-05,-8.0045e-20,0,0.22673,-0.0081543,0.0091126,0.0090687,1,0.753,1,0.05,0
0.001061,-4.6655e-05,0.73049,0.000754,0,0.00025315,2.4242e-05,-8.0892e-20,0,0.22969,-0.0080343,0.0092297,0.0091868,1,0.754,1,0.05,0
0.00079584,-5.7705e-05,0.73322,0.000755,0,0.00024466,2.4268e-05,-8.2162e-20,0,0.17338,-0.0078682,0.0069709,0.0069347,1,0.755,1,0.05,0
0.00099491,-4.7959e-05,0.73542,0.000756,0,0.00025224,2.4285e-05,-8.1527e-20,0,0.21648,-0.0077309,0.0086915,0.0086581,1,0.756,1,0.05,0
0.001068,-4.3553e-05,0.73774,0.000757,0,0.00025552,2.4291e-05,-8.1739e-20,0,0.23244,-0.0076255,0.0093313,0.0092967,1,0.757,1,0.05,0
0.00082854,-5.333e-05,0.74041,0.000758,0,0.00024766,2.4311e-05,-8.0892e-20,0,0.18124,-0.0074843,0.0072794,0.0072488,1,0.758,1,0.05,0
0.0010263,-4.3595e-05,0.74258,0.000759,0,0.00025547,2.4325e-05,-7.9833e-20,0,0.2243,-0.0073626,0.0089999,0.0089708,1,0.759,1,0.05,0
0.00083687,-5.1084e-05,0.74517,0.00076,0,0.00024924,2.4344e-05,-8.2374e-20,0,0.18365,-0.0072279,0.0073715,0.0073453,1,0.76,1,0.05,0
0.0010423,-4.0948e-05,0.74731,0.000761,0,0.00025752,2.4356e-05,-8.1315e-20,0,0.22853,-0.007116,0.0091654,0.0091398,1,0.761,1,0.05,0
0.00086043,-4.8079e-05,0.74987,0.000762,0,0.00025144,2.4372e-05,-8.2586e-20,0,0.18934,-0.0069923,0.0075962,0.0075725,1,0.762,1,0.05,0
0.0010631,-3.8058e-05,0.75198,0.000763,0,0.00025982,2.4383e-05,-8.0045e-20,0,0.2338,-0.0068871,0.0093741,0.0093505,1,0.763,1,0.05,0
0.00088503,-4.504e-05,0.75453,0.000764,0,0.00025376,2.4399e-05,-8.0892e-20,0,0.19527,-0.0067699,0.0078317,0.0078096,1,0.764,1,0.05,0
0.001084,-3.5194e-05,0.75662,0.000765,0,0.00026221,2.441e-05,-8.068e-20,0,0.23911,-0.0066685,0.0095849,0.0095628,1,0.765,1,0.05,0
0.00090935,-4.2048e-05,0.75913,0.000766,0,0.00025617,2.4425e-05,-8.195e-20,0,0.20117,-0.0065554,0.0080665,0.0080456,1,0.766,1,0.05,0
0.0011045,-3.2386e-05,0.7612,0.000767,0,0.00026468,2.4437e-05,-8.0045e-20,0,0.24436,-0.0064567,0.0097939,0.0097729,1,0.767,1,0.05,0
0.00093327,-3.9115e-05,0.7637,0.000768,0,0.00025866,2.4453e-05,-8.1739e-20,0,0.20703,-0.006347,0.0082996,0.0082797,1,0.768,1,0.05,0
0.00088703,-4.0448e-05,0.76604,0.000769,0,0.00025756,2.4478e-05,-8.2586e-20,0,0.19726,-0.0062155,0.0079045,0.0078891,1,0.769,1,0.05,0
0.001112,-2.9401e-05,0.76803,0.00077,0,0.00026759,2.449e-05,-8.2374e-20,0,0.2473,-0.00612,0.0099061,0.0098902,1,0.77,1,0.05,0
0.00096135,-3.5164e-05,0.77047,0.000771,0,0.00026221,2.4504e-05,-8.2162e-20,0,0.21424,-0.0060218,0.0085844,0.0085682,1,0.771,1,0.05,0
0.00091912,-3.6294e-05,0.77277,0.000772,0,0.00026126,2.4527e-05,-8.2586e-20,0,0.20529,-0.0059027,0.0082228,0.0082099,1,0.772,1,0.05,0
0.00091232,-3.5798e-05,0.77501,0.000773,0,0.00026178,2.455e-05,-8.2586e-20,0,0.20417,-0.0057831,0.0081748,0.0081651,1,0.773,1,0.05,0
0.00091717,-3.4725e-05,0.77723,0.000774,0,0.00026281,2.4572e-05,-8.1739e-20,0,0.20562,-0.0056696,0.0082304,0.0082229,1,0.774,1,0.05,0
0.00092586,-3.3451e-05,0.77943,0.000775,0,0.00026401,2.4591e-05,-8.0892e-20,0,0.20791,-0.0055629,0.0083203,0.0083143,1,0.775,1,0.05,0
0.00093575,-3.2111e-05,0.78162,0.000776,0,0.00026529,2.4609e-05,-8.0045e-20,0,0.21046,-0.005462,0.0084213,0.0084163,1,0.776,1,0.05,0
0.00094597,-3.0757e-05,0.7838,0.000777,0,0.00026661,2.4627e-05,-8.2162e-20,0,0.21308,-0.0053654,0.0085258,0.0085213,1,0.777,1,0.05,0
0.00095623,-2.9407e-05,0.78596,0.000778,0,0.00026796,2.4643e-05,-8.2374e-20,0,0.21572,-0.0052722,0.008631,0.0086269,1,0.778,1,0.05,0
0.00096643,-2.8068e-05,0.78811,0.000779,0,0.00026933,2.466e-05,-8.3009e-20,0,0.21836,-0.0051816,0.0087361,0.0087321,1,0.779,1,0.05,0
0.00097653,-2.6743e-05,0.79025,0.00078,0,0.00027072,2.4677e-05,-8.2162e-20,0,0.22097,-0.0050932,0.0088407,0.0088368,1,0.78,1,0.05,0
0.00098653,-2.5433e-05,0.79237,0.000781,0,0.00027213,2.4693e-05,-8.3009e-20,0,0.22358,-0.0050066,0.0089447,0.0089409,1,0.781,1,0.05,0
0.00099642,-2.4138e-05,0.79449,0.000782,0,0.00027357,2.471e-05,-8.2586e-20,0,0.22616,-0.0049216,0.0090482,0.0090443,1,0.782,1,0.05,0
0.0010062,-2.2859e-05,0.79659,0.000783,0,0.00027504,2.4726e-05,-8.3856e-20,0,0.22873,-0.0048382,0.009151,0.009147,1,0.783,1,0.05,0
0.0010159,-2.1595e-05,0.79868,0.000784,0,0.00027652,2.4743e-05,-8.2162e-20,0,0.23128,-0.0047563,0.0092532,0.0092491,1,0.784,1,0.05,0
0.0010254,-2.0345e-05,0.80075,0.000785,0,0.00027804,2.4761e-05,-8.2162e-20,0,0.23382,-0.0046757,0.0093548,0.0093504,1,0.785,1,0.05,0
0.0010349,-1.9111e-05,0.80282,0.000786,0,0.00027957,2.4778e-05,-8.1315e-20,0,0.23634,-0.0045966,0.0094557,0.0094512,1,0.786,1,0.05,0
0.0010442,-1.7892e-05,0.80487,0.000787,0,0.00028114,2.4795e-05,-8.1739e-20,0,0.23884,-0.0045188,0.009556,0.0095512,1,0.787,1,0.05,0
0.0010535,-1.6687e-05,0.8069,0.000788,0,0.00028272,2.4813e-05,-8.3009e-20,0,0.24132,-0.0044423,0.0096557,0.0096506,1,0.788,1,0.05,0
0.0010626,-1.5496e-05,0.80893,0.000789,0,0.00028434,2.4831e-05,-8.2586e-20,0,0.24379,-0.0043672,0.0097548,0.0097492,1,0.789,1,0.05,0
0.0010717,-1.4321e-05,0.81094,0.00079,0,0.00028598,2.4849e-05,-8.195e-20,0,0.24624,-0.0042933,0.0098532,0.0098472,1,0.79,1,0.05,0
0.0010806,-1.3159e-05,0.81294,0.000791,0,0.00028764,2.4868e-05,-8.2586e-20,0,0.24867,-0.0042208,0.0099509,0.0099445,1,0.791,1,0.05,0
0.0010894,-1.2012e-05,0.81493,0.000792,0,0.00028934,2.4886e-05,-8.1739e-20,0,0.25109,-0.0041495,0.010048,0.010041,1,0.792,1,0.05,0
0.0010981,-1.0878e-05,0.8169,0.000793,0,0.00029106,2.4905e-05,-8.2586e-20,0,0.25348,-0.0040795,0.010144,0.010137,1,0.793,1,0.05,0
0.0011067,-9.759e-06,0.81886,0.000794,0,0.00029281,2.4924e-05,-8.2586e-20,0,0.25587,-0.0040107,0.01024,0.010232,1,0.794,1,0.05,0
0.0011152,-8.6535e-06,0.82081,0.000795,0,0.00029459,2.4943e-05,-8.2162e-20,0,0.25823,-0.0039432,0.010335,0.010327,1,0.795,1,0.05,0
0.0011236,-7.5618e-06,0.82274,0.000796,0,0.00029639,2.4963e-05,-8.2797e-20,0,0.26057,-0.0038769,0.01043,0.010421,1,0.796,1,0.05,0
0.0011319,-6.4837e-06,0.82466,0.000797,0,0.00029823,2.4983e-05,-8.3433e-20,0,0.2629,-0.0038118,0.010524,0.010514,1,0.797,1,0.05,0
0.0011401,-5.4191e-06,0.82657,0.000798,0,0.0003001,2.5003e-05,-8.2586e-20,0,0.26521,-0.003748,0.010617,0.010606,1,0.798,1,0.05,0
0.0011481,-4.3679e-06,0.82847,0.000799,0,0.00030199,2.5023e-05,-8.3221e-20,0,0.2675,-0.0036853,0.010709,0.010698,1,0.799,1,0.05,0
0.0011561,-3.3301e-06,0.83035,0.0008,0,0.00030392,2.5043e-05,-8.5127e-20,0,0.26977,-0.0036239,0.010801,0.010788,1,0.8,1,0.05,0
0.001164,-2.3054e-06,0.83222,0.000801,0,0.00030588,2.5064e-05,-8.2586e-20,0,0.27202,-0.0035636,0.010892,0.010878,1,0.801,1,0.05,0
0.0011717,-1.294e-06,0.83407,0.000802,0,0.00030787,2.5085e-05,-8.4068e-20,0,0.27425,-0.0035045,0.010982,0.010968,1,0.802,1,0.05,0
0.0011794,-2.9556e-07,0.83591,0.000803,0,0.00030989,2.5106e-05,-8.3009e-20,0,0.27647,-0.0034466,0.011072,0.011056,1,0.803,1,0.05,0
0.001187,6.8992e-07,0.83774,0.000804,0,0.00031194,2.5127e-05,-8.2162e-20,0,0.27866,-0.0033899,0.011161,0.011144,1,0.804,1,0.05,0
0.0011944,1.6626e-06,0.83955,0.000805,0,0.00031403,2.5149e-05,-8.3433e-20,0,0.28084,-0.0033343,0.011249,0.011231,1,0.805,1,0.05,0
0.0012018,2.6224e-06,0.84135,0.000806,0,0.00031615,2.517e-05,-8.1739e-20,0,0.28299,-0.0032799,0.011337,0.011318,1,0.806,1,0.05,0
0.001209,3.5695e-06,0.84314,0.000807,0,0.0003183,2.5192e-05,-8.3856e-20,0,0.28513,-0.0032266,0.011423,0.011403,1,0.807,1,0.05,0
0.0010702,-2.3192e-06,0.84514,0.000808,0,0.00031082,2.5228e-05,-8.4068e-20,0,0.25244,-0.0031554,0.010114,0.010096,1,0.808,1,0.05,0
0.0011487,1.7883e-06,0.8468,0.000809,0,0.00031769,2.5262e-05,-8.4915e-20,0,0.27171,-0.0030859,0.010883,0.010866,1,0.809,1,0.05,0
0.0011921,4.4121e-06,0.84849,0.00081,0,0.00032232,2.5286e-05,-8.428e-20,0,0.28251,-0.0030297,0.011315,0.011298,1,0.81,1,0.05,0
0.0010778,-2.9768e-07,0.85042,0.000811,0,0.0003162,2.532e-05,-8.4703e-20,0,0.25545,-0.0029648,0.010233,0.010216,1,0.811,1,0.05,0
0.0011606,4.0571e-06,0.85202,0.000812,0,0.00032366,2.535e-05,-8.3856e-20,0,0.27585,-0.0029043,0.011048,0.011032,1,0.812,1,0.05,0
0.001207,6.8442e-06,0.85367,0.000813,0,0.00032872,2.5371e-05,-8.6609e-20,0,0.28741,-0.0028573,0.011513,0.011494,1,0.813,1,0.05,0
0.001099,2.4284e-06,0.85554,0.000814,0,0.00032282,2.5401e-05,-8.428e-20,0,0.26169,-0.0028031,0.010485,0.010466,1,0.814,1,0.05,0
0.001179,6.6572e-06,0.85711,0.000815,0,0.00033041,2.5429e-05,-8.4703e-20,0,0.2815,-0.0027511,0.011277,0.011258,1,0.815,1,0.05,0
0.0012247,9.4022e-06,0.85871,0.000816,0,0.00033567,2.5448e-05,-8.4492e-20,0,0.29297,-0.0027111,0.011739,0.011717,1,0.816,1,0.05,0
0.0011208,5.155e-06,0.86055,0.000817,0,0.00032987,2.5476e-05,-8.5762e-20,0,0.26811,-0.0026643,0.010746,0.010722,1,0.817,1,0.05,0
0.0011973,9.2088e-06,0.86207,0.000818,0,0.00033754,2.5503e-05,-8.5127e-20,0,0.28716,-0.0026182,0.011508,0.011484,1,0.818,1,0.05,0
0.0011154,5.9393e-06,0.86385,0.000819,0,0.00033324,2.5534e-05,-8.555e-20,0,0.26756,-0.0025693,0.010726,0.010701,1,0.819,1,0.05,0
0.0011982,1.0291e-05,0.86533,0.00082,0,0.00034162,2.5562e-05,-8.6397e-20,0,0.28822,-0.0025244,0.011553,0.011527,1,0.82,1,0.05,0
0.0011235,7.3623e-06,0.86707,0.000821,0,0.00033778,2.5592e-05,-8.5339e-20,0,0.27032,-0.0024788,0.010838,0.010811,1,0.821,1,0.05,0
0.0012063,1.1722e-05,0.86853,0.000822,0,0.0003464,2.5618e-05,-8.5762e-20,0,0.29105,-0.0024376,0.011668,0.01164,1,0.822,1,0.05,0
0.0011351,8.9456e-06,0.87023,0.000823,0,0.00034275,2.5647e-05,-8.8515e-20,0,0.27391,-0.0023965,0.010985,0.010955,1,0.823,1,0.05,0
0.0012162,1.3227e-05,0.87166,0.000824,0,0.0003515,2.5672e-05,-8.428e-20,0,0.29429,-0.0023591,0.011801,0.01177,1,0.824,1,0.05,0
0.0011473,1.0544e-05,0.87334,0.000825,0,0.00034796,2.57e-05,-8.7668e-20,0,0.27765,-0.002322,0.011138,0.011104,1,0.825,1,0.05,0
0.0012263,1.4722e-05,0.87474,0.000826,0,0.0003568,2.5725e-05,-8.555e-20,0,0.29758,-0.002288,0.011937,0.011901,1,0.826,1,0.05,0
0.0011593,1.2114e-05,0.87639,0.000827,0,0.00035335,2.5752e-05,-8.6821e-20,0,0.28135,-0.0022543,0.01129,0.011253,1,0.827,1,0.05,0
0.0012362,1.6181e-05,0.87777,0.000828,0,0.00036227,2.5776e-05,-8.5127e-20,0,0.30081,-0.002223,0.01207,0.012031,1,0.828,1,0.05,0
0.0011711,1.3639e-05,0.87938,0.000829,0,0.00035891,2.5804e-05,-8.7668e-20,0,0.28497,-0.0021922,0.01144,0.011398,1,0.829,1,0.05,0
0.0011378,1.2494e-05,0.88093,0.00083,0,0.00035827,2.5839e-05,-8.8515e-20,0,0.2771,-0.0021532,0.011125,0.011083,1,0.83,1,0.05,0
0.0012267,1.7098e-05,0.88225,0.000831,0,0.00036863,2.5866e-05,-8.5127e-20,0,0.29966,-0.0021207,0.012029,0.011985,1,0.831,1,0.05,0
0.0011746,1.5154e-05,0.8838,0.000832,0,0.00036633,2.5894e-05,-8.3645e-20,0,0.287,-0.0020912,0.011525,0.011479,1,0.832,1,0.05,0
0.0011476,1.4303e-05,0.88529,0.000833,0,0.00036625,2.5928e-05,-8.555e-20,0,0.28063,-0.002056,0.011271,0.011224,1,0.833,1,0.05,0
0.0012356,1.8866e-05,0.88657,0.000834,0,0.00037698,2.5954e-05,-8.6397e-20,0,0.30304,-0.0020275,0.012169,0.01212,1,0.834,1,0.05,0
0.0011878,1.7111e-05,0.88808,0.000835,0,0.00037501,2.598e-05,-8.8727e-20,0,0.29136,-0.0020028,0.011706,0.011653,1,0.835,1,0.05,0
0.0011623,1.6325e-05,0.88953,0.000836,0,0.00037511,2.6013e-05,-8.6397e-20,0,0.28533,-0.0019729,0.011466,0.011412,1,0.836,1,0.05,0
0.0012471,2.0733e-05,0.89077,0.000837,0,0.00038603,2.6038e-05,-8.8515e-20,0,0.30703,-0.0019486,0.012336,0.01228,1,0.837,1,0.05,0
0.0012019,1.9078e-05,0.89223,0.000838,0,0.00038426,2.6063e-05,-8.7244e-20,0,0.29594,-0.0019282,0.011896,0.011837,1,0.838,1,0.05,0
0.0011772,1.831e-05,0.89364,0.000839,0,0.00038448,2.6094e-05,-8.788e-20,0,0.29005,-0.0019027,0.011662,0.011602,1,0.839,1,0.05,0
0.0011644,1.8077e-05,0.89502,0.00084,0,0.00038588,2.6129e-05,-8.6186e-20,0,0.28718,-0.0018746,0.011549,0.011487,1,0.84,1,0.05,0
0.0012508,2.2544e-05,0.8962,0.000841,0,0.0003976,2.6154e-05,-9.0421e-20,0,0.3094,-0.0018528,0.012439,0.012375,1,0.841,1,0.05,0
0.001213,2.1214e-05,0.89759,0.000842,0,0.00039654,2.6178e-05,-8.9362e-20,0,0.3001,-0.0018357,0.012071,0.012004,1,0.842,1,0.05,0
0.0011918,2.0597e-05,0.89894,0.000843,0,0.00039717,2.6208e-05,-8.6397e-20,0,0.29504,-0.0018149,0.011871,0.011801,1,0.843,1,0.05,0
0.0011805,2.0421e-05,0.90027,0.000844,0,0.00039886,2.6241e-05,-8.6821e-20,0,0.2925,-0.0017919,0.011772,0.0117,1,0.844,1,0.05,0
0.0011752,2.0517e-05,0.90156,0.000845,0,0.0004012,2.6275e-05,-8.7668e-20,0,0.29147,-0.0017681,0.011732,0.011659,1,0.845,1,0.05,0
0.0012598,2.4884e-05,0.90268,0.000846,0,0.00041359,2.63e-05,-8.5974e-20,0,0.31333,-0.0017504,0.012608,0.012533,1,0.846,1,0.05,0
0.0012282,2.3819e-05,0.904,0.000847,0,0.00041318,2.6323e-05,-8.8515e-20,0,0.30553,-0.001738,0.0123,0.012221,1,0.847,1,0.05,0
0.0012099,2.3317e-05,0.90528,0.000848,0,0.00041424,2.6351e-05,-8.8515e-20,0,0.30112,-0.0017228,0.012127,0.012045,1,0.848,1,0.05,0
0.0011997,2.3172e-05,0.90653,0.000849,0,0.00041623,2.6382e-05,-8.6397e-20,0,0.29882,-0.0017057,0.012037,0.011953,1,0.849,1,0.05,0
0.0011946,2.3256e-05,0.90776,0.00085,0,0.00041882,2.6414e-05,-9.0209e-20,0,0.2978,-0.0016878,0.011999,0.011913,1,0.85,1,0.05,0
0.0011926,2.3484e-05,0.90897,0.000851,0,0.00042181,2.6447e-05,-8.7668e-20,0,0.29759,-0.0016697,0.011992,0.011904,1,0.851,1,0.05,0
0.0011926,2.3804e-05,0.91017,0.000852,0,0.00042508,2.6479e-05,-8.8515e-20,0,0.29786,-0.0016521,0.012005,0.011915,1,0.852,1,0.05,0
0.0011938,2.4181e-05,0.91135,0.000853,0,0.00042854,2.6511e-05,-8.7668e-20,0,0.29843,-0.0016352,0.012029,0.011938,1,0.853,1,0.05,0
0.0011958,2.4591e-05,0.91251,0.000854,0,0.00043214,2.6543e-05,-8.8303e-20,0,0.29918,-0.0016194,0.012062,0.011968,1,0.854,1,0.05,0
0.0012004,2.5046e-05,0.91348,0.000855,0,0.00043579,2.6574e-05,-8.8303e-20,0,0.30056,-0.0016075,0.012119,0.012023,1,0.855,1,0.05,0
0.0012073,2.5498e-05,0.91419,0.000856,0,0.0004393,2.6605e-05,-8.7244e-20,0,0.30242,-0.0016001,0.012196,0.012098,1,0.856,1,0.05,0
0.0012144,2.5885e-05,0.91473,0.000857,0,0.00044257,2.6636e-05,-9.0844e-20,0,0.30428,-0.0015955,0.012273,0.012172,1,0.857,1,0.05,0
0.0012209,2.6185e-05,0.91516,0.000858,0,0.00044557,2.6669e-05,-8.915e-20,0,0.30595,-0.0015924,0.012343,0.012239,1,0.858,1,0.05,0
0.0012262,2.6392e-05,0.91554,0.000859,0,0.00044832,2.6704e-05,-8.9362e-20,0,0.30728,-0.0015895,0.012399,0.012292,1,0.859,1,0.05,0
0.0012299,2.6512e-05,0.91591,0.00086,0,0.00045088,2.6741e-05,-8.8515e-20,0,0.3082,-0.0015856,0.012438,0.012329,1,0.86,1,0.05,0
0.0012332,2.6583e-05,0.91622,0.000861,0,0.00045329,2.678e-05,-9.0209e-20,0,0.30902,-0.0015816,0.012473,0.012362,1,0.861,1,0.05,0
0.0012359,2.66e-05,0.91649,0.000862,0,0.00045555,2.6821e-05,-8.8727e-20,0,0.30968,-0.0015768,0.012502,0.012388,1,0.862,1,0.05,0
0.0012384,2.6575e-05,0.91671,0.000863,0,0.00045769,2.6865e-05,-8.9362e-20,0,0.31025,-0.0015713,0.012527,0.012411,1,0.863,1,0.05,0
0.0012409,2.6511e-05,0.91687,0.000864,0,0.0004597,2.691e-05,-9.0633e-20,0,0.3108,-0.0015653,0.01255,0.012434,1,0.864,1,0.05,0
0.0012423,2.6394e-05,0.91702,0.000865,0,0.00046158,2.6959e-05,-8.9785e-20,0,0.3111,-0.0015577,0.012564,0.012446,1,0.865,1,0.05,0
0.0012432,2.624e-05,0.91718,0.000866,0,0.00046338,2.701e-05,-9.0209e-20,0,0.31124,-0.0015485,0.01257,0.012451,1,0.866,1,0.05,0
0.0012437,2.6063e-05,0.91732,0.000867,0,0.00046512,2.7063e-05,-9.2327e-20,0,0.3113,-0.0015378,0.012574,0.012454,1,0.867,1,0.05,0
0.0012439,2.5864e-05,0.91746,0.000868,0,0.00046682,2.7118e-05,-9.148e-20,0,0.31126,-0.0015257,0.012573,0.012452,1,0.868,1,0.05,0
0.0012437,2.5651e-05,0.9176,0.000869,0,0.00046848,2.7175e-05,-8.915e-20,0,0.31117,-0.0015121,0.01257,0.012448,1,0.869,1,0.05,0
0.0012437,2.5431e-05,0.91773,0.00087,0,0.00047012,2.7234e-05,-9.0209e-20,0,0.31107,-0.0014975,0.012566,0.012444,1,0.87,1,0.05,0
0.0012436,2.5202e-05,0.91784,0.000871,0,0.00047174,2.7295e-05,-8.9574e-20,0,0.31097,-0.0014818,0.012563,0.012441,1,0.871,1,0.05,0
0.0012436,2.4965e-05,0.91793,0.000872,0,0.00047331,2.7357e-05,-8.9785e-20,0,0.31087,-0.0014653,0.012559,0.012437,1,0.872,1,0.05,0
0.0012433,2.4716e-05,0.91803,0.000873,0,0.00047486,2.7421e-05,-9.0844e-20,0,0.31071,-0.0014476,0.012552,0.01243,1,0.873,1,0.05,0
0.0012428,2.4459e-05,0.91812,0.000874,0,0.00047638,2.7486e-05,-9.0633e-20,0,0.3105,-0.001429,0.012544,0.012422,1,0.874,1,0.05,0
0.0012423,2.4197e-05,0.91821,0.000875,0,0.00047789,2.7553e-05,-9.0421e-20,0,0.31027,-0.0014095,0.012535,0.012413,1,0.875,1,0.05,0
0.0012416,2.3934e-05,0.91831,0.000876,0,0.00047939,2.7621e-05,-9.0209e-20,0,0.31002,-0.0013893,0.012524,0.012403,1,0.876,1,0.05,0
0.0012409,2.367e-05,0.9184,0.000877,0,0.00048089,2.769e-05,-9.3809e-20,0,0.30976,-0.0013683,0.012514,0.012392,1,0.877,1,0.05,0
0.0012402,2.3407e-05,0.91849,0.000878,0,0.00048239,2.776e-05,-9.1268e-20,0,0.3095,-0.0013467,0.012503,0.012382,1,0.878,1,0.05,0
0.0012395,2.3145e-05,0.91859,0.000879,0,0.00048388,2.7831e-05,-9.4021e-20,0,0.30923,-0.0013246,0.012492,0.012371,1,0.879,1,0.05,0
0.0012387,2.2885e-05,0.91868,0.00088,0,0.00048538,2.7902e-05,-9.3385e-20,0,0.30896,-0.0013021,0.012481,0.01236,1,0.88,1,0.05,0
0.001238,2.2627e-05,0.91877,0.000881,0,0.00048688,2.7975e-05,-9.1903e-20,0,0.3087,-0.0012792,0.01247,0.01235,1,0.881,1,0.05,0
0.0012372,2.2372e-05,0.91886,0.000882,0,0.00048838,2.8048e-05,-9.148e-20,0,0.30843,-0.0012559,0.012459,0.012339,1,0.882,1,0.05,0
0.0012366,2.212e-05,0.91895,0.000883,0,0.00048988,2.8122e-05,-9.3174e-20,0,0.3082,-0.0012325,0.01245,0.01233,1,0.883,1,0.05,0
0.001236,2.1869e-05,0.91903,0.000884,0,0.00049137,2.8196e-05,-9.635e-20,0,0.30795,-0.0012087,0.01244,0.01232,1,0.884,1,0.05,0
0.0012353,2.1618e-05,0.91911,0.000885,0,0.00049286,2.8272e-05,-9.4232e-20,0,0.3077,-0.0011848,0.012429,0.01231,1,0.885,1,0.05,0
0.0012348,2.1369e-05,0.91919,0.000886,0,0.00049434,2.8347e-05,-9.3174e-20,0,0.30747,-0.0011607,0.01242,0.012301,1,0.886,1,0.05,0
0.0012343,2.1119e-05,0.91925,0.000887,0,0.00049581,2.8424e-05,-9.6562e-20,0,0.30727,-0.0011365,0.012412,0.012292,1,0.887,1,0.05,0
0.0012337,2.0866e-05,0.91931,0.000888,0,0.00049727,2.85e-05,-9.6562e-20,0,0.30703,-0.0011121,0.012402,0.012283,1,0.888,1,0.05,0
0.0011648,1.7252e-05,0.91936,0.000889,0,0.00048909,2.8595e-05,-9.4232e-20,0,0.28898,-0.0010804,0.011679,0.011561,1,0.889,1,0.05,0
0.0011846,1.7926e-05,0.91941,0.00089,0,0.00049333,2.8683e-05,-9.5926e-20,0,0.29411,-0.0010474,0.011882,0.011766,1,0.89,1,0.05,0
0.0011983,1.8348e-05,0.91946,0.000891,0,0.00049673,2.8766e-05,-9.4868e-20,0,0.29763,-0.0010166,0.012021,0.011907,1,0.891,1,0.05,0
0.0012077,1.8585e-05,0.91951,0.000892,0,0.00049953,2.8848e-05,-9.7409e-20,0,0.3,-0.00098765,0.012116,0.012001,1,0.892,1,0.05,0
0.001214,1.8689e-05,0.91956,0.000893,0,0.00050191,2.8927e-05,-9.9526e-20,0,0.30157,-0.00096036,0.012178,0.012064,1,0.893,1,0.05,0
0.0012183,1.8695e-05,0.91961,0.000894,0,0.00050399,2.9006e-05,-9.7409e-20,0,0.30258,-0.00093435,0.012219,0.012104,1,0.894,1,0.05,0
0.001221,1.8631e-05,0.91966,0.000895,0,0.00050587,2.9084e-05,-9.7832e-20,0,0.30319,-0.00090931,0.012244,0.012129,1,0.895,1,0.05,0
0.0012226,1.8517e-05,0.91971,0.000896,0,0.0005076,2.9162e-05,-9.6985e-20,0,0.30353,-0.00088493,0.012257,0.012143,1,0.896,1,0.05,0
0.0012236,1.8366e-05,0.91975,0.000897,0,0.00050923,2.9241e-05,-9.8891e-20,0,0.30367,-0.000861,0.012264,0.012148,1,0.897,1,0.05,0
0.001156,1.4855e-05,0.91981,0.000898,0,0.00050118,2.9337e-05,-9.7621e-20,0,0.28596,-0.00083006,0.011555,0.01144,1,0.898,1,0.05,0
0.0011762,1.558e-05,0.91986,0.000899,0,0.00050549,2.9425e-05,-9.7409e-20,0,0.2912,-0.00079843,0.011763,0.01165,1,0.899,1,0.05,0
0.0011902,1.6047e-05,0.91991,0.0009,0,0.00050895,2.951e-05,-9.5503e-20,0,0.29481,-0.00076909,0.011906,0.011794,1,0.9,1,0.05,0
0.0011999,1.6325e-05,0.91995,0.000901,0,0.00051179,2.9593e-05,-9.995e-20,0,0.29726,-0.00074178,0.012004,0.011892,1,0.901,1,0.05,0
0.0012066,1.6464e-05,0.92,0.000902,0,0.00051421,2.9673e-05,-9.995e-20,0,0.29891,-0.00071611,0.012071,0.011958,1,0.902,1,0.05,0
0.001211,1.6502e-05,0.92004,0.000903,0,0.00051632,2.9753e-05,-1.0037e-19,0,0.29998,-0.00069173,0.012114,0.012001,1,0.903,1,0.05,0
0.001214,1.6464e-05,0.92008,0.000904,0,0.00051821,2.9833e-05,-9.8679e-20,0,0.30065,-0.00066827,0.012141,0.012027,1,0.904,1,0.05,0
0.0012158,1.6373e-05,0.92012,0.000905,0,0.00051995,2.9912e-05,-9.635e-20,0,0.30102,-0.00064545,0.012157,0.012042,1,0.905,1,0.05,0
0.0011494,1.2925e-05,0.92016,0.000906,0,0.00051196,3.001e-05,-9.7832e-20,0,0.28358,-0.00061565,0.011459,0.011345,1,0.906,1,0.05,0
0.0011698,1.3675e-05,0.9202,0.000907,0,0.0005163,3.0099e-05,-9.7832e-20,0,0.28889,-0.00058534,0.01167,0.011557,1,0.907,1,0.05,0
0.0011841,1.4161e-05,0.92023,0.000908,0,0.00051977,3.0185e-05,-9.995e-20,0,0.29256,-0.00055729,0.011816,0.011704,1,0.908,1,0.05,0
0.001194,1.4454e-05,0.92026,0.000909,0,0.00052261,3.0269e-05,-1.0122e-19,0,0.29507,-0.00053116,0.011917,0.011804,1,0.909,1,0.05,0
0.0012008,1.4603e-05,0.92029,0.00091,0,0.00052501,3.0351e-05,-1.008e-19,0,0.29674,-0.00050661,0.011985,0.011871,1,0.91,1,0.05,0
0.0012055,1.4647e-05,0.92031,0.000911,0,0.00052709,3.0433e-05,-1.0207e-19,0,0.29785,-0.0004832,0.01203,0.011915,1,0.911,1,0.05,0
0.0012085,1.4612e-05,0.92033,0.000912,0,0.00052895,3.0514e-05,-1.0334e-19,0,0.29853,-0.00046061,0.012058,0.011943,1,0.912,1,0.05,0
0.0011431,1.1215e-05,0.92036,0.000913,0,0.00052103,3.0613e-05,-1.0037e-19,0,0.28132,-0.00043108,0.011369,0.011254,1,0.913,1,0.05,0
0.0011639,1.1986e-05,0.92038,0.000914,0,0.00052539,3.0704e-05,-1.044e-19,0,0.28673,-0.00040135,0.011584,0.011471,1,0.914,1,0.05,0
0.0011784,1.2488e-05,0.9204,0.000915,0,0.00052887,3.0791e-05,-1.0355e-19,0,0.29045,-0.0003739,0.011733,0.01162,1,0.915,1,0.05,0
0.0011884,1.2793e-05,0.92042,0.000916,0,0.00053171,3.0876e-05,-1.0376e-19,0,0.29299,-0.00034844,0.011835,0.011721,1,0.916,1,0.05,0
0.0011953,1.2953e-05,0.92044,0.000917,0,0.0005341,3.096e-05,-1.0101e-19,0,0.29469,-0.00032458,0.011904,0.011789,1,0.917,1,0.05,0
0.0011999,1.3007e-05,0.92046,0.000918,0,0.00053618,3.1042e-05,-1.0715e-19,0,0.29579,-0.00030194,0.011948,0.011833,1,0.918,1,0.05,0
0.0012029,1.2984e-05,0.92048,0.000919,0,0.00053803,3.1125e-05,-1.0334e-19,0,0.29647,-0.00028015,0.011977,0.01186,1,0.919,1,0.05,0
0.0011376,9.6044e-06,0.92051,0.00092,0,0.00053011,3.1225e-05,-1.0461e-19,0,0.2793,-0.00025136,0.01129,0.011174,1,0.92,1,0.05,0
0.0011584,1.0384e-05,0.92053,0.000921,0,0.00053447,3.1318e-05,-1.044e-19,0,0.2847,-0.00022252,0.011505,0.01139,1,0.921,1,0.05,0
0.0011729,1.0897e-05,0.92055,0.000922,0,0.00053795,3.1406e-05,-1.0778e-19,0,0.28843,-0.00019598,0.011654,0.011539,1,0.922,1,0.05,0
0.0011829,1.1213e-05,0.92057,0.000923,0,0.00054079,3.1492e-05,-1.0461e-19,0,0.29097,-0.00017143,0.011756,0.011641,1,0.923,1,0.05,0
0.0011898,1.1385e-05,0.92059,0.000924,0,0.00054319,3.1577e-05,-1.0249e-19,0,0.29268,-0.00014851,0.011825,0.011709,1,0.924,1,0.05,0
0.0011945,1.1452e-05,0.92061,0.000925,0,0.00054527,3.1661e-05,-1.0927e-19,0,0.2938,-0.00012681,0.011871,0.011754,1,0.925,1,0.05,0
0.0011975,1.1441e-05,0.92063,0.000926,0,0.00054713,3.1744e-05,-1.0715e-19,0,0.2945,-0.000106,0.0119,0.011782,1,0.926,1,0.05,0
0.0011324,8.0806e-06,0.92066,0.000927,0,0.00053921,3.1846e-05,-1.0503e-19,0,0.27737,-7.8123e-05,0.011215,0.011097,1,0.927,1,0.05,0
0.0011532,8.8695e-06,0.92068,0.000928,0,0.00054357,3.1939e-05,-1.08e-19,0,0.28277,-5.0316e-05,0.01143,0.011312,1,0.928,1,0.05,0
0.0011676,9.3921e-06,0.9207,0.000929,0,0.00054705,3.2029e-05,-1.0757e-19,0,0.2865,-2.481e-05,0.011579,0.011462,1,0.929,1,0.05,0
0.0011777,9.7193e-06,0.92072,0.00093,0,0.0005499,3.2116e-05,-1.08e-19,0,0.28906,-1.3065e-06,0.011682,0.011564,1,0.93,1,0.05,0
0.0011846,9.9029e-06,0.92074,0.000931,0,0.0005523,3.2202e-05,-1.08e-19,0,0.29079,2.0569e-05,0.011752,0.011633,1,0.931,1,0.05,0
0.0011893,9.981e-06,0.92076,0.000932,0,0.00055439,3.2286e-05,-1.0863e-19,0,0.29192,4.1205e-05,0.011798,0.011678,1,0.932,1,0.05,0
0.0011924,9.9818e-06,0.92079,0.000933,0,0.00055626,3.2371e-05,-1.0694e-19,0,0.29263,6.0956e-05,0.011828,0.011707,1,0.933,1,0.05,0
0.0011275,6.6395e-06,0.92081,0.000934,0,0.00054834,3.2474e-05,-1.0715e-19,0,0.27555,8.7798e-05,0.011145,0.011024,1,0.934,1,0.05,0
0.0011482,7.4362e-06,0.92083,0.000935,0,0.0005527,3.2568e-05,-1.0927e-19,0,0.28095,0.00011449,0.01136,0.01124,1,0.935,1,0.05,0
0.0011627,7.968e-06,0.92085,0.000936,0,0.00055618,3.2658e-05,-1.0546e-19,0,0.28469,0.00013888,0.011509,0.011389,1,0.936,1,0.05,0
0.0011728,8.3052e-06,0.92087,0.000937,0,0.00055904,3.2746e-05,-1.0715e-19,0,0.28726,0.00016127,0.011612,0.011492,1,0.937,1,0.05,0
0.0011797,8.4992e-06,0.92089,0.000938,0,0.00056145,3.2833e-05,-1.0588e-19,0,0.28899,0.00018203,0.011683,0.011562,1,0.938,1,0.05,0
0.0011844,8.588e-06,0.92092,0.000939,0,0.00056354,3.2918e-05,-1.1138e-19,0,0.29014,0.00020155,0.01173,0.011608,1,0.939,1,0.05,0
0.001121,5.3253e-06,0.92094,0.00094,0,0.0005558,3.3022e-05,-1.1096e-19,0,0.27343,0.00022793,0.011061,0.010939,1,0.94,1,0.05,0
0.0011424,6.1691e-06,0.92096,0.000941,0,0.00056027,3.3116e-05,-1.0588e-19,0,0.27902,0.00025378,0.011284,0.011163,1,0.941,1,0.05,0
0.0011574,6.7384e-06,0.92098,0.000942,0,0.00056383,3.3207e-05,-1.116e-19,0,0.28291,0.00027717,0.01144,0.011318,1,0.942,1,0.05,0
0.0011679,7.1059e-06,0.921,0.000943,0,0.00056674,3.3295e-05,-1.116e-19,0,0.28558,0.00029844,0.011548,0.011425,1,0.943,1,0.05,0
0.0011751,7.3247e-06,0.92102,0.000944,0,0.00056919,3.3382e-05,-1.1435e-19,0,0.2874,0.00031799,0.011621,0.011498,1,0.944,1,0.05,0
0.0011801,7.4341e-06,0.92105,0.000945,0,0.00057132,3.3468e-05,-1.0969e-19,0,0.28861,0.00033624,0.011671,0.011546,1,0.945,1,0.05,0
0.0011169,4.1954e-06,0.92107,0.000946,0,0.0005636,3.3571e-05,-1.1244e-19,0,0.27197,0.0003613,0.011006,0.010881,1,0.946,1,0.05,0
0.0011383,5.0508e-06,0.92109,0.000947,0,0.00056809,3.3666e-05,-1.1287e-19,0,0.27758,0.00038581,0.011229,0.011105,1,0.947,1,0.05,0
0.0011534,5.6312e-06,0.92111,0.000948,0,0.00057165,3.3757e-05,-1.1371e-19,0,0.28149,0.00040787,0.011386,0.011262,1,0.948,1,0.05,0
0.001164,6.0092e-06,0.92113,0.000949,0,0.00057458,3.3846e-05,-1.135e-19,0,0.28418,0.00042783,0.011494,0.011369,1,0.949,1,0.05,0
0.0011713,6.238e-06,0.92115,0.00095,0,0.00057703,3.3932e-05,-1.1138e-19,0,0.28602,0.00044609,0.011569,0.011443,1,0.95,1,0.05,0
0.0011763,6.357e-06,0.92118,0.000951,0,0.00057917,3.4019e-05,-1.1138e-19,0,0.28724,0.00046308,0.011619,0.011492,1,0.951,1,0.05,0
0.0011132,3.1329e-06,0.9212,0.000952,0,0.00057145,3.4122e-05,-1.1562e-19,0,0.27064,0.00048688,0.010955,0.010828,1,0.952,1,0.05,0
0.0011347,3.9925e-06,0.92122,0.000953,0,0.00057594,3.4217e-05,-1.1858e-19,0,0.27626,0.00051028,0.011179,0.011053,1,0.953,1,0.05,0
0.0011498,4.5769e-06,0.92123,0.000954,0,0.0005795,3.4309e-05,-1.1181e-19,0,0.28018,0.00053129,0.011336,0.011209,1,0.954,1,0.05,0
0.0011604,4.9584e-06,0.92125,0.000955,0,0.00058242,3.4398e-05,-1.1435e-19,0,0.28288,0.00055025,0.011445,0.011317,1,0.955,1,0.05,0
0.0011677,5.1903e-06,0.92127,0.000956,0,0.00058487,3.4485e-05,-1.1329e-19,0,0.28472,0.00056756,0.01152,0.011391,1,0.956,1,0.05,0
0.0011727,5.3119e-06,0.92129,0.000957,0,0.000587,3.4572e-05,-1.152e-19,0,0.28595,0.00058364,0.01157,0.01144,1,0.957,1,0.05,0
0.0011098,2.0937e-06,0.9213,0.000958,0,0.00057928,3.4676e-05,-1.1414e-19,0,0.26937,0.0006066,0.010907,0.010777,1,0.958,1,0.05,0
0.0011312,2.9538e-06,0.92132,0.000959,0,0.00058375,3.4772e-05,-1.1816e-19,0,0.27497,0.00062902,0.011131,0.011001,1,0.959,1,0.05,0
0.0011463,3.5408e-06,0.92134,0.00096,0,0.00058731,3.4863e-05,-1.1774e-19,0,0.27888,0.00064907,0.011287,0.011157,1,0.96,1,0.05,0
0.0011569,3.9249e-06,0.92135,0.000961,0,0.00059022,3.4953e-05,-1.1731e-19,0,0.28159,0.00066724,0.011396,0.011266,1,0.961,1,0.05,0
0.0011642,4.1589e-06,0.92136,0.000962,0,0.00059267,3.5041e-05,-1.1837e-19,0,0.28344,0.00068379,0.011471,0.01134,1,0.962,1,0.05,0
0.0011693,4.2822e-06,0.92138,0.000963,0,0.00059478,3.5128e-05,-1.1308e-19,0,0.28467,0.00069914,0.011522,0.011389,1,0.963,1,0.05,0
0.0011065,1.0682e-06,0.92139,0.000964,0,0.00058705,3.5233e-05,-1.1731e-19,0,0.26811,0.00072144,0.01086,0.010727,1,0.964,1,0.05,0
0.0011278,1.9271e-06,0.9214,0.000965,0,0.00059151,3.5329e-05,-1.1753e-19,0,0.2737,0.00074318,0.011083,0.01095,1,0.965,1,0.05,0
0.0011429,2.5121e-06,0.92141,0.000966,0,0.00059505,3.5422e-05,-1.1604e-19,0,0.27761,0.00076271,0.011239,0.011107,1,0.966,1,0.05,0
0.0011535,2.8948e-06,0.92142,0.000967,0,0.00059795,3.5512e-05,-1.1731e-19,0,0.28031,0.00078026,0.011348,0.011215,1,0.967,1,0.05,0
0.0011608,3.1281e-06,0.92143,0.000968,0,0.00060038,3.56e-05,-1.152e-19,0,0.28215,0.00079623,0.011423,0.011289,1,0.968,1,0.05,0
0.0011658,3.251e-06,0.92144,0.000969,0,0.00060248,3.5688e-05,-1.2197e-19,0,0.28338,0.000811,0.011473,0.011338,1,0.969,1,0.05,0
0.0011031,3.6477e-08,0.92145,0.00097,0,0.00059473,3.5794e-05,-1.1668e-19,0,0.26683,0.00083298,0.010812,0.010676,1,0.97,1,0.05,0
0.0011244,8.9129e-07,0.92145,0.000971,0,0.00059917,3.5891e-05,-1.1901e-19,0,0.27241,0.00085431,0.011034,0.010899,1,0.971,1,0.05,0
0.0011394,1.4736e-06,0.92146,0.000972,0,0.00060269,3.5984e-05,-1.2155e-19,0,0.27631,0.00087335,0.01119,0.011055,1,0.972,1,0.05,0
0.0011499,1.8547e-06,0.92146,0.000973,0,0.00060557,3.6075e-05,-1.2197e-19,0,0.279,0.00089041,0.011298,0.011162,1,0.973,1,0.05,0
0.0011572,2.087e-06,0.92147,0.000974,0,0.00060799,3.6165e-05,-1.1901e-19,0,0.28083,0.0009059,0.011372,0.011236,1,0.974,1,0.05,0
0.0011622,2.2094e-06,0.92147,0.000975,0,0.00061008,3.6253e-05,-1.2451e-19,0,0.28206,0.0009202,0.011422,0.011285,1,0.975,1,0.05,0
0.0010995,-1.0032e-06,0.92148,0.000976,0,0.00060231,3.636e-05,-1.188e-19,0,0.2655,0.00094163,0.010761,0.010623,1,0.976,1,0.05,0
0.0011207,-1.4654e-07,0.92148,0.000977,0,0.00060674,3.6458e-05,-1.2324e-19,0,0.27107,0.00096234,0.010982,0.010845,1,0.977,1,0.05,0
0.0011357,4.3893e-07,0.92149,0.000978,0,0.00061026,3.6551e-05,-1.207e-19,0,0.27496,0.00098073,0.011138,0.011001,1,0.978,1,0.05,0
0.0011462,8.2406e-07,0.92149,0.000979,0,0.00061314,3.6643e-05,-1.2155e-19,0,0.27765,0.00099713,0.011246,0.011109,1,0.979,1,0.05,0
0.0011535,1.0611e-06,0.9215,0.00098,0,0.00061555,3.6733e-05,-1.2451e-19,0,0.27949,0.0010119,0.011321,0.011182,1,0.98,1,0.05,0
0.0011585,1.1886e-06,0.92151,0.000981,0,0.00061764,3.6822e-05,-1.2409e-19,0,0.28072,0.0010255,0.011371,0.011231,1,0.981,1,0.05,0
0.0010958,-2.0174e-06,0.92151,0.000982,0,0.00060987,3.6929e-05,-1.2134e-19,0,0.26417,0.0010463,0.01071,0.01057,1,0.982,1,0.05,0
0.0011171,-1.1559e-06,0.92152,0.000983,0,0.0006143,3.7027e-05,-1.2451e-19,0,0.26974,0.0010663,0.010932,0.010793,1,0.983,1,0.05,0
0.0011321,-5.6525e-07,0.92152,0.000984,0,0.00061782,3.7122e-05,-1.26e-19,0,0.27364,0.0010839,0.011088,0.010948,1,0.984,1,0.05,0
0.0011426,-1.7463e-07,0.92153,0.000985,0,0.00062069,3.7214e-05,-1.2705e-19,0,0.27634,0.0010995,0.011196,0.011056,1,0.985,1,0.05,0
0.0011499,6.803e-08,0.92153,0.000986,0,0.00062311,3.7304e-05,-1.2578e-19,0,0.27818,0.0011136,0.011271,0.01113,1,0.986,1,0.05,0
0.0011549,2.0129e-07,0.92154,0.000987,0,0.0006252,3.7393e-05,-1.2663e-19,0,0.27942,0.0011264,0.011322,0.01118,1,0.987,1,0.05,0
0.0010922,-2.9977e-06,0.92154,0.000988,0,0.00061743,3.7501e-05,-1.2536e-19,0,0.26289,0.0011464,0.010661,0.010519,1,0.988,1,0.05,0
0.0011135,-2.1313e-06,0.92155,0.000989,0,0.00062185,3.76e-05,-1.2367e-19,0,0.26847,0.0011655,0.010883,0.010742,1,0.989,1,0.05,0
0.0011285,-1.5354e-06,0.92155,0.00099,0,0.00062538,3.7694e-05,-1.2494e-19,0,0.27237,0.0011824,0.011039,0.010898,1,0.99,1,0.05,0
0.001139,-1.1394e-06,0.92156,0.000991,0,0.00062825,3.7787e-05,-1.2917e-19,0,0.27508,0.0011972,0.011148,0.011006,1,0.991,1,0.05,0
0.0011464,-8.913e-07,0.92156,0.000992,0,0.00063067,3.7877e-05,-1.2875e-19,0,0.27693,0.0012104,0.011223,0.01108,1,0.992,1,0.05,0
0.0011514,-7.5255e-07,0.92157,0.000993,0,0.00063276,3.7967e-05,-1.2748e-19,0,0.27818,0.0012224,0.011274,0.01113,1,0.993,1,0.05,0
0.0010888,-3.9447e-06,0.92158,0.000994,0,0.00062499,3.8075e-05,-1.296e-19,0,0.26166,0.0012416,0.010614,0.01047,1,0.994,1,0.05,0
0.0011101,-3.0737e-06,0.92158,0.000995,0,0.00062942,3.8174e-05,-1.2578e-19,0,0.26725,0.0012599,0.010836,0.010693,1,0.995,1,0.05,0
0.0011251,-2.4729e-06,0.92159,0.000996,0,0.00063294,3.8269e-05,-1.3214e-19,0,0.27116,0.0012759,0.010992,0.010849,1,0.996,1,0.05,0
0.0011356,-2.0719e-06,0.92159,0.000997,0,0.00063582,3.8361e-05,-1.296e-19,0,0.27387,0.0012898,0.011102,0.010958,1,0.997,1,0.05,0
0.001143,-1.8186e-06,0.9216,0.000998,0,0.00063824,3.8452e-05,-1.2705e-19,0,0.27574,0.0013022,0.011177,0.011032,1,0.998,1,0.05,0
0.001148,-1.6747e-06,0.9216,0.000999,0,0.00064032,3.8542e-05,-1.2917e-19,0,0.27699,0.0013134,0.011228,0.011083,1,0.999,1,0.05,0
0.0010855,-4.8604e-06,0.92161,0.001,0,0.00063255,3.8651e-05,-1.3298e-19,0,0.26049,0.0013317,0.010569,0.010423,1,1,1,0.05,0
