"NodalForces:0","NodalForces:1","damage","displacement:0","displacement:1","epsilon_xx","epsilon_xy","epsilon_yy","epsilon_zz","sigma_xx","sigma_xy","sigma_yy","sigma_zz","vtkValidPointMask","Time","Point Coordinates:0","Point Coordinates:1","Point Coordinates:2"
0,0,0,0,0,0,0,0,0,0,0,0,0,1,0,1,0.0125,0
0.00028684,-3.4094e-06,1.5131e-12,1e-06,0,9.9451e-07,-1.7092e-08,1.0257e-22,0,0.023021,-0.00026858,0.00092059,0.00092059,1,0.001,1,0.0125,0
0.00057355,-6.8268e-06,1.5045e-11,2e-06,0,1.9886e-06,-3.4245e-08,2.1176e-22,0,0.04603,-0.00053811,0.0018407,0.0018407,1,0.002,1,0.0125,0
0.00086044,-1.0245e-05,8.9844e-11,3e-06,0,2.9833e-06,-5.1329e-08,3.0771e-22,0,0.069056,-0.00080655,0.0027615,0.0027615,1,0.003,1,0.0125,0
0.0011472,-1.3661e-05,3.075e-10,4e-06,0,3.9774e-06,-6.8441e-08,4.1359e-22,0,0.092067,-0.0010754,0.0036817,0.0036817,1,0.004,1,0.0125,0
0.0014339,-1.7078e-05,7.8696e-10,5e-06,0,4.9716e-06,-8.5555e-08,5.2278e-22,0,0.11508,-0.0013443,0.004602,0.004602,1,0.005,1,0.0125,0
0.0017208,-2.0497e-05,1.6839e-09,6e-06,0,5.9662e-06,-1.0268e-07,6.2204e-22,0,0.1381,-0.0016134,0.0055227,0.0055227,1,0.006,1,0.0125,0
0.0020075,-2.3914e-05,3.1893e-09,7e-06,0,6.9605e-06,-1.1979e-07,7.2792e-22,0,0.16112,-0.0018823,0.0064431,0.0064431,1,0.007,1,0.0125,0
0.0022943,-2.7331e-05,5.5313e-09,8e-06,0,7.9549e-06,-1.3691e-07,8.3049e-22,0,0.18414,-0.0021513,0.0073636,0.0073636,1,0.008,1,0.0125,0
0.0025812,-3.0749e-05,8.9749e-09,9e-06,0,8.9494e-06,-1.5403e-07,9.5953e-22,0,0.20716,-0.0024203,0.0082842,0.0082842,1,0.009,1,0.0125,0
0.0028679,-3.4165e-05,1.3818e-08,1e-05,0,9.9435e-06,-1.7114e-07,1.0522e-21,0,0.23017,-0.0026892,0.0092044,0.0092044,1,0.01,1,0.0125,0
0.0031547,-3.7583e-05,2.0401e-08,1.1e-05,0,1.0938e-05,-1.8826e-07,1.1382e-21,0,0.25319,-0.0029581,0.010125,0.010125,1,0.011,1,0.0125,0
0.0034415,-4.1e-05,2.9095e-08,1.2e-05,0,1.1932e-05,-2.0537e-07,1.2375e-21,0,0.27621,-0.0032271,0.011045,0.011045,1,0.012,1,0.0125,0
0.0037283,-4.4417e-05,4.0309e-08,1.3e-05,0,1.2927e-05,-2.2249e-07,1.35e-21,0,0.29923,-0.003496,0.011966,0.011966,1,0.013,1,0.0125,0
0.0040151,-4.7835e-05,5.449e-08,1.4e-05,0,1.3921e-05,-2.396e-07,1.4823e-21,0,0.32224,-0.003765,0.012886,0.012886,1,0.014,1,0.0125,0
0.004302,-5.1253e-05,7.2123e-08,1.5e-05,0,1.4916e-05,-2.5672e-07,1.5816e-21,0,0.34527,-0.004034,0.013807,0.013807,1,0.015,1,0.0125,0
0.0045888,-5.4669e-05,9.3716e-08,1.6e-05,0,1.591e-05,-2.7384e-07,1.7007e-21,0,0.36828,-0.0043029,0.014727,0.014727,1,0.016,1,0.0125,0
0.0048756,-5.8087e-05,1.1984e-07,1.7e-05,0,1.6905e-05,-2.9096e-07,1.7735e-21,0,0.3913,-0.0045719,0.015648,0.015648,1,0.017,1,0.0125,0
0.0051624,-6.1504e-05,1.5107e-07,1.8e-05,0,1.7899e-05,-3.0807e-07,1.8794e-21,0,0.41432,-0.0048408,0.016569,0.016569,1,0.018,1,0.0125,0
0.0054493,-6.4921e-05,1.8804e-07,1.9e-05,0,1.8894e-05,-3.2519e-07,2.0249e-21,0,0.43734,-0.0051098,0.017489,0.017489,1,0.019,1,0.0125,0
0.0057361,-6.8338e-05,2.3141e-07,2e-05,0,1.9888e-05,-3.423e-07,2.0911e-21,0,0.46036,-0.0053787,0.01841,0.01841,1,0.02,1,0.0125,0
0.006023,-7.1756e-05,2.819e-07,2.1e-05,0,2.0883e-05,-3.5942e-07,2.1838e-21,0,0.48339,-0.0056477,0.01933,0.01933,1,0.021,1,0.0125,0
0.0063098,-7.5173e-05,3.4022e-07,2.2e-05,0,2.1877e-05,-3.7654e-07,2.3161e-21,0,0.50641,-0.0059167,0.020251,0.020251,1,0.022,1,0.0125,0
0.0065966,-7.8589e-05,4.0714e-07,2.3e-05,0,2.2872e-05,-3.9365e-07,2.3823e-21,0,0.52942,-0.0061856,0.021171,0.021171,1,0.023,1,0.0125,0
0.0068835,-8.2006e-05,4.835e-07,2.4e-05,0,2.3866e-05,-4.1077e-07,2.4882e-21,0,0.55245,-0.0064546,0.022092,0.022092,1,0.024,1,0.0125,0
0.0071704,-8.5424e-05,5.7013e-07,2.5e-05,0,2.4861e-05,-4.2789e-07,2.647e-21,0,0.57547,-0.0067236,0.023013,0.023013,1,0.025,1,0.0125,0
0.0074572,-8.884e-05,6.6789e-07,2.6e-05,0,2.5855e-05,-4.45e-07,2.7132e-21,0,0.59849,-0.0069925,0.023933,0.023933,1,0.026,1,0.0125,0
0.0077441,-9.2258e-05,7.7774e-07,2.7e-05,0,2.685e-05,-4.6212e-07,2.8058e-21,0,0.62152,-0.0072615,0.024854,0.024854,1,0.027,1,0.0125,0
0.0080309,-9.5674e-05,9.0058e-07,2.8e-05,0,2.7845e-05,-4.7924e-07,2.9381e-21,0,0.64454,-0.0075304,0.025775,0.025775,1,0.028,1,0.0125,0
0.0083178,-9.9091e-05,1.0375e-06,2.9e-05,0,2.8839e-05,-4.9636e-07,2.9911e-21,0,0.66756,-0.0077994,0.026696,0.026696,1,0.029,1,0.0125,0
0.0086047,-0.00010251,1.1894e-06,3e-05,0,2.9834e-05,-5.1348e-07,3.1631e-21,0,0.69059,-0.0080684,0.027616,0.027616,1,0.03,1,0.0125,0
0.008891,-0.00010581,1.3532e-06,3.1e-05,0,3.0828e-05,-5.3065e-07,3.2558e-21,0,0.71358,-0.0083382,0.028536,0.028536,1,0.031,1,0.0125,0
0.0091785,-0.00010934,1.5381e-06,3.2e-05,0,3.1824e-05,-5.4771e-07,3.3617e-21,0,0.73664,-0.0086063,0.029458,0.029458,1,0.032,1,0.0125,0
0.0094653,-0.00011275,1.7412e-06,3.3e-05,0,3.2818e-05,-5.6483e-07,3.4543e-21,0,0.75966,-0.0088753,0.030379,0.030379,1,0.033,1,0.0125,0
0.0097516,-0.00011603,1.9583e-06,3.4e-05,0,3.3812e-05,-5.8201e-07,3.5734e-21,0,0.78265,-0.0091452,0.031298,0.031298,1,0.034,1,0.0125,0
0.010039,-0.00011958,2.2011e-06,3.5e-05,0,3.4808e-05,-5.9907e-07,3.6264e-21,0,0.80571,-0.0094132,0.03222,0.03222,1,0.035,1,0.0125,0
0.010326,-0.000123,2.4658e-06,3.6e-05,0,3.5803e-05,-6.1619e-07,3.8116e-21,0,0.82874,-0.0096822,0.033141,0.033141,1,0.036,1,0.0125,0
0.010613,-0.00012633,2.7501e-06,3.7e-05,0,3.6797e-05,-6.3336e-07,3.9175e-21,0,0.85174,-0.0099521,0.034061,0.034061,1,0.037,1,0.0125,0
0.010899,-0.00012974,3.0584e-06,3.8e-05,0,3.7792e-05,-6.5049e-07,3.9175e-21,0,0.87477,-0.010221,0.034982,0.034982,1,0.038,1,0.0125,0
0.011187,-0.00013324,3.3961e-06,3.9e-05,0,3.8787e-05,-6.6755e-07,4.0763e-21,0,0.89781,-0.010489,0.035903,0.035903,1,0.039,1,0.0125,0
0.011473,-0.00013656,3.7564e-06,4e-05,0,3.9781e-05,-6.8473e-07,4.2881e-21,0,0.92082,-0.010759,0.036823,0.036823,1,0.04,1,0.0125,0
0.01176,-0.00013997,4.1447e-06,4.1e-05,0,4.0776e-05,-7.0185e-07,4.3146e-21,0,0.94385,-0.011028,0.037744,0.037744,1,0.041,1,0.0125,0
0.012047,-0.00014347,4.5675e-06,4.2e-05,0,4.1772e-05,-7.1891e-07,4.341e-21,0,0.96689,-0.011296,0.038666,0.038666,1,0.042,1,0.0125,0
0.012334,-0.00014679,5.0164e-06,4.3e-05,0,4.2766e-05,-7.3609e-07,4.4205e-21,0,0.9899,-0.011566,0.039586,0.039586,1,0.043,1,0.0125,0
0.012621,-0.00015019,5.4976e-06,4.4e-05,0,4.3761e-05,-7.5321e-07,4.6322e-21,0,1.0129,-0.011835,0.040506,0.040506,1,0.044,1,0.0125,0
0.012908,-0.0001537,6.0189e-06,4.5e-05,0,4.4757e-05,-7.7027e-07,4.6057e-21,0,1.036,-0.012103,0.041428,0.041428,1,0.045,1,0.0125,0
0.013195,-0.00015701,6.5696e-06,4.6e-05,0,4.5751e-05,-7.8746e-07,4.7646e-21,0,1.059,-0.012373,0.042348,0.042348,1,0.046,1,0.0125,0
0.013482,-0.00016041,7.1574e-06,4.7e-05,0,4.6747e-05,-8.0458e-07,4.8175e-21,0,1.082,-0.012642,0.043269,0.043269,1,0.047,1,0.0125,0
0.013769,-0.00016393,7.7914e-06,4.8e-05,0,4.7743e-05,-8.2164e-07,5.0028e-21,0,1.1051,-0.01291,0.044191,0.044191,1,0.048,1,0.0125,0
0.014056,-0.00016734,8.4666e-06,4.9e-05,0,4.8738e-05,-8.3876e-07,5.0822e-21,0,1.1281,-0.013179,0.045112,0.045112,1,0.049,1,0.0125,0
0.014342,-0.00017062,9.176e-06,5e-05,0,4.9732e-05,-8.5595e-07,5.2145e-21,0,1.1511,-0.013449,0.046031,0.046031,1,0.05,1,0.0125,0
0.014629,-0.00017402,9.9289e-06,5.1e-05,0,5.0727e-05,-8.7307e-07,5.241e-21,0,1.1741,-0.013718,0.046952,0.046952,1,0.051,1,0.0125,0
0.014916,-0.00017742,1.0728e-05,5.2e-05,0,5.1722e-05,-8.9019e-07,5.4528e-21,0,1.1971,-0.013987,0.047873,0.047873,1,0.052,1,0.0125,0
0.015204,-0.00018095,1.1584e-05,5.3e-05,0,5.2719e-05,-9.0726e-07,5.3998e-21,0,1.2202,-0.014254,0.048795,0.048795,1,0.053,1,0.0125,0
0.01549,-0.00018422,1.2479e-05,5.4e-05,0,5.3713e-05,-9.2445e-07,5.6116e-21,0,1.2432,-0.014524,0.049714,0.049714,1,0.054,1,0.0125,0
0.015777,-0.00018761,1.3426e-05,5.5e-05,0,5.4708e-05,-9.4157e-07,5.7175e-21,0,1.2662,-0.014793,0.050635,0.050635,1,0.055,1,0.0125,0
0.016064,-0.00019115,1.4437e-05,5.6e-05,0,5.5705e-05,-9.5862e-07,5.8763e-21,0,1.2893,-0.015061,0.051557,0.051557,1,0.056,1,0.0125,0
0.016351,-0.00019456,1.5505e-05,5.7e-05,0,5.6701e-05,-9.7575e-07,5.9292e-21,0,1.3123,-0.01533,0.052478,0.052478,1,0.057,1,0.0125,0
0.016637,-0.0001978,1.6617e-05,5.8e-05,0,5.7695e-05,-9.9295e-07,6.141e-21,0,1.3353,-0.0156,0.053397,0.053397,1,0.058,1,0.0125,0
0.016924,-0.00020119,1.7788e-05,5.9e-05,0,5.869e-05,-1.0101e-06,6.141e-21,0,1.3583,-0.015869,0.054317,0.054318,1,0.059,1,0.0125,0
0.017211,-0.00020458,1.902e-05,6e-05,0,5.9686e-05,-1.0272e-06,6.1675e-21,0,1.3813,-0.016138,0.055238,0.055238,1,0.06,1,0.0125,0
0.017498,-0.00020813,2.0331e-05,6.1e-05,0,6.0683e-05,-1.0443e-06,6.4851e-21,0,1.4044,-0.016405,0.05616,0.05616,1,0.061,1,0.0125,0
0.017785,-0.00021152,2.1708e-05,6.2e-05,0,6.1679e-05,-1.0614e-06,6.3263e-21,0,1.4274,-0.016674,0.057081,0.057081,1,0.062,1,0.0125,0
0.018071,-0.00021473,2.3136e-05,6.3e-05,0,6.2673e-05,-1.0786e-06,6.5116e-21,0,1.4504,-0.016944,0.057999,0.057999,1,0.063,1,0.0125,0
0.018358,-0.00021811,2.4633e-05,6.4e-05,0,6.3668e-05,-1.0957e-06,6.6174e-21,0,1.4734,-0.017213,0.058919,0.058919,1,0.064,1,0.0125,0
0.018644,-0.00022149,2.6203e-05,6.5e-05,0,6.4664e-05,-1.1128e-06,6.6439e-21,0,1.4964,-0.017481,0.05984,0.05984,1,0.065,1,0.0125,0
0.018932,-0.00022506,2.7867e-05,6.6e-05,0,6.5662e-05,-1.1299e-06,6.7498e-21,0,1.5194,-0.017749,0.060762,0.060762,1,0.066,1,0.0125,0
0.019219,-0.00022845,2.9608e-05,6.7e-05,0,6.6659e-05,-1.147e-06,6.9616e-21,0,1.5425,-0.018017,0.061682,0.061682,1,0.067,1,0.0125,0
0.019504,-0.00023162,3.1407e-05,6.8e-05,0,6.7652e-05,-1.1642e-06,6.9086e-21,0,1.5654,-0.018287,0.0626,0.0626,1,0.068,1,0.0125,0
0.019791,-0.00023498,3.3288e-05,6.9e-05,0,6.8648e-05,-1.1814e-06,7.2527e-21,0,1.5884,-0.018556,0.063519,0.06352,1,0.069,1,0.0125,0
0.020077,-0.00023835,3.5251e-05,7e-05,0,6.9644e-05,-1.1985e-06,7.3586e-21,0,1.6114,-0.018824,0.064439,0.064439,1,0.07,1,0.0125,0
0.020365,-0.00024194,3.7326e-05,7.1e-05,0,7.0642e-05,-1.2155e-06,7.4645e-21,0,1.6345,-0.019092,0.065361,0.065361,1,0.071,1,0.0125,0
0.020651,-0.00024531,3.9491e-05,7.2e-05,0,7.1639e-05,-1.2327e-06,7.6233e-21,0,1.6575,-0.01936,0.06628,0.066281,1,0.072,1,0.0125,0
0.020937,-0.00024843,4.172e-05,7.3e-05,0,7.2632e-05,-1.2499e-06,7.6762e-21,0,1.6804,-0.01963,0.067197,0.067198,1,0.073,1,0.0125,0
0.021223,-0.00025178,4.4043e-05,7.4e-05,0,7.3628e-05,-1.267e-06,7.5174e-21,0,1.7034,-0.019898,0.068116,0.068117,1,0.074,1,0.0125,0
0.021509,-0.00025513,4.6462e-05,7.5e-05,0,7.4624e-05,-1.2841e-06,7.888e-21,0,1.7263,-0.020166,0.069035,0.069036,1,0.075,1,0.0125,0
0.021797,-0.00025873,4.9012e-05,7.6e-05,0,7.5624e-05,-1.3012e-06,7.9409e-21,0,1.7494,-0.020433,0.069957,0.069958,1,0.076,1,0.0125,0
0.022083,-0.00026208,5.1663e-05,7.7e-05,0,7.662e-05,-1.3183e-06,7.888e-21,0,1.7724,-0.020701,0.070875,0.070876,1,0.077,1,0.0125,0
0.022368,-0.00026516,5.4387e-05,7.8e-05,0,7.7613e-05,-1.3356e-06,8.1527e-21,0,1.7953,-0.020971,0.071791,0.071792,1,0.078,1,0.0125,0
0.022654,-0.00026849,5.7218e-05,7.9e-05,0,7.861e-05,-1.3527e-06,8.3645e-21,0,1.8182,-0.021239,0.072709,0.07271,1,0.079,1,0.0125,0
0.02294,-0.00027182,6.0157e-05,8e-05,0,7.9606e-05,-1.3698e-06,8.4703e-21,0,1.8412,-0.021507,0.073627,0.073628,1,0.08,1,0.0125,0
0.023227,-0.00027543,6.3248e-05,8.1e-05,0,8.0606e-05,-1.3869e-06,8.4703e-21,0,1.8642,-0.021773,0.074548,0.074549,1,0.081,1,0.0125,0
0.023513,-0.00027876,6.6455e-05,8.2e-05,0,8.1603e-05,-1.404e-06,8.4703e-21,0,1.8872,-0.022041,0.075465,0.075467,1,0.082,1,0.0125,0
0.023797,-0.00028178,6.974e-05,8.3e-05,0,8.2596e-05,-1.4212e-06,8.5762e-21,0,1.91,-0.02231,0.076379,0.076381,1,0.083,1,0.0125,0
0.024083,-0.00028508,7.3147e-05,8.4e-05,0,8.3592e-05,-1.4384e-06,8.4703e-21,0,1.9329,-0.022578,0.077296,0.077298,1,0.084,1,0.0125,0
0.024368,-0.00028839,7.6678e-05,8.5e-05,0,8.4589e-05,-1.4555e-06,8.6821e-21,0,1.9559,-0.022846,0.078213,0.078214,1,0.085,1,0.0125,0
0.024655,-0.000292,8.0382e-05,8.6e-05,0,8.559e-05,-1.4726e-06,8.8938e-21,0,1.9789,-0.023112,0.079133,0.079135,1,0.086,1,0.0125,0
0.024941,-0.0002953,8.4216e-05,8.7e-05,0,8.6586e-05,-1.4897e-06,9.1056e-21,0,2.0018,-0.023379,0.080048,0.080051,1,0.087,1,0.0125,0
0.025224,-0.00029825,8.8136e-05,8.8e-05,0,8.7579e-05,-1.5069e-06,9.2644e-21,0,2.0246,-0.023648,0.08096,0.080962,1,0.088,1,0.0125,0
0.025509,-0.00030153,9.2193e-05,8.9e-05,0,8.8576e-05,-1.5241e-06,9.4762e-21,0,2.0475,-0.023915,0.081875,0.081878,1,0.089,1,0.0125,0
0.025794,-0.0003048,9.6389e-05,9e-05,0,8.9572e-05,-1.5412e-06,9.5291e-21,0,2.0704,-0.024182,0.08279,0.082793,1,0.09,1,0.0125,0
0.026079,-0.00030806,0.00010073,9.1e-05,0,9.0569e-05,-1.5584e-06,9.4762e-21,0,2.0932,-0.024449,0.083704,0.083707,1,0.091,1,0.0125,0
0.026366,-0.00031167,0.00010527,9.2e-05,0,9.1571e-05,-1.5754e-06,9.7409e-21,0,2.1162,-0.024715,0.084623,0.084626,1,0.092,1,0.0125,0
0.02665,-0.00031493,0.00010995,9.3e-05,0,9.2568e-05,-1.5926e-06,9.4232e-21,0,2.139,-0.024981,0.085536,0.085539,1,0.093,1,0.0125,0
0.026933,-0.00031779,0.00011474,9.4e-05,0,9.356e-05,-1.6098e-06,9.7938e-21,0,2.1618,-0.025249,0.086445,0.086448,1,0.094,1,0.0125,0
0.027217,-0.00032102,0.00011968,9.5e-05,0,9.4557e-05,-1.6269e-06,9.9526e-21,0,2.1846,-0.025516,0.087357,0.087361,1,0.095,1,0.0125,0
0.027501,-0.00032424,0.00012478,9.6e-05,0,9.5554e-05,-1.6441e-06,9.9526e-21,0,2.2074,-0.025782,0.088269,0.088273,1,0.096,1,0.0125,0
0.027785,-0.00032745,0.00013003,9.7e-05,0,9.6552e-05,-1.6612e-06,1.0059e-20,0,2.2302,-0.026048,0.089181,0.089185,1,0.097,1,0.0125,0
0.028071,-0.00033106,0.00013553,9.8e-05,0,9.7554e-05,-1.6783e-06,1.0059e-20,0,2.2531,-0.026313,0.090097,0.090101,1,0.098,1,0.0125,0
0.028355,-0.00033426,0.00014119,9.9e-05,0,9.8551e-05,-1.6954e-06,1.0323e-20,0,2.2759,-0.026578,0.091007,0.091012,1,0.099,1,0.0125,0
0.028636,-0.00033701,0.00014695,0.0001,0,9.9543e-05,-1.7127e-06,1.0376e-20,0,2.2985,-0.026845,0.091912,0.091917,1,0.1,1,0.0125,0
0.028919,-0.00034018,0.00015289,0.000101,0,0.00010054,-1.7298e-06,1.0376e-20,0,2.3213,-0.027111,0.092821,0.092826,1,0.101,1,0.0125,0
0.029202,-0.00034333,0.00015901,0.000102,0,0.00010154,-1.747e-06,1.0588e-20,0,2.344,-0.027376,0.093729,0.093735,1,0.102,1,0.0125,0
0.029484,-0.00034648,0.00016532,0.000103,0,0.00010253,-1.7641e-06,1.0641e-20,0,2.3667,-0.027641,0.094636,0.094643,1,0.103,1,0.0125,0
0.029767,-0.00034961,0.00017181,0.000104,0,0.00010353,-1.7813e-06,1.08e-20,0,2.3894,-0.027906,0.095543,0.09555,1,0.104,1,0.0125,0
0.030051,-0.00035318,0.00017857,0.000105,0,0.00010454,-1.7984e-06,1.0906e-20,0,2.4122,-0.028169,0.096455,0.096462,1,0.105,1,0.0125,0
0.030333,-0.0003563,0.00018552,0.000106,0,0.00010553,-1.8155e-06,1.1117e-20,0,2.4348,-0.028434,0.09736,0.097368,1,0.106,1,0.0125,0
0.030613,-0.00035891,0.00019259,0.000107,0,0.00010652,-1.8328e-06,1.0958e-20,0,2.4573,-0.028699,0.098259,0.098267,1,0.107,1,0.0125,0
0.030894,-0.00036199,0.00019986,0.000108,0,0.00010752,-1.8499e-06,1.1329e-20,0,2.4799,-0.028963,0.099163,0.099171,1,0.108,1,0.0125,0
0.031175,-0.00036505,0.00020734,0.000109,0,0.00010852,-1.8671e-06,1.1329e-20,0,2.5025,-0.029227,0.10007,0.10007,1,0.109,1,0.0125,0
0.031456,-0.00036809,0.00021502,0.00011,0,0.00010952,-1.8843e-06,1.1647e-20,0,2.5251,-0.02949,0.10097,0.10098,1,0.11,1,0.0125,0
0.031737,-0.00037112,0.00022291,0.000111,0,0.00011051,-1.9014e-06,1.1647e-20,0,2.5476,-0.029753,0.10187,0.10188,1,0.111,1,0.0125,0
0.032017,-0.00037413,0.00023103,0.000112,0,0.00011151,-1.9186e-06,1.1858e-20,0,2.5701,-0.030016,0.10277,0.10278,1,0.112,1,0.0125,0
0.032297,-0.00037712,0.00023935,0.000113,0,0.00011251,-1.9358e-06,1.1858e-20,0,2.5926,-0.030279,0.10367,0.10368,1,0.113,1,0.0125,0
0.032576,-0.00038009,0.00024791,0.000114,0,0.00011351,-1.9529e-06,1.1858e-20,0,2.6151,-0.030541,0.10456,0.10458,1,0.114,1,0.0125,0
0.032855,-0.00038305,0.00025669,0.000115,0,0.0001145,-1.9701e-06,1.2176e-20,0,2.6375,-0.030803,0.10546,0.10547,1,0.115,1,0.0125,0
0.033134,-0.00038598,0.0002657,0.000116,0,0.0001155,-1.9873e-06,1.2282e-20,0,2.6599,-0.031065,0.10635,0.10637,1,0.116,1,0.0125,0
0.033412,-0.0003889,0.00027495,0.000117,0,0.0001165,-2.0044e-06,1.2282e-20,0,2.6823,-0.031326,0.10725,0.10726,1,0.117,1,0.0125,0
0.03369,-0.00039179,0.00028444,0.000118,0,0.0001175,-2.0216e-06,1.2017e-20,0,2.7046,-0.031587,0.10814,0.10816,1,0.118,1,0.0125,0
0.033968,-0.00039466,0.00029416,0.000119,0,0.00011849,-2.0388e-06,1.2282e-20,0,2.727,-0.031848,0.10903,0.10905,1,0.119,1,0.0125,0
0.034245,-0.00039751,0.00030414,0.00012,0,0.00011949,-2.056e-06,1.2335e-20,0,2.7492,-0.032108,0.10992,0.10994,1,0.12,1,0.0125,0
0.034522,-0.00040034,0.00031437,0.000121,0,0.00012049,-2.0731e-06,1.2811e-20,0,2.7715,-0.032368,0.11081,0.11083,1,0.121,1,0.0125,0
0.034798,-0.00040314,0.00032486,0.000122,0,0.00012149,-2.0903e-06,1.2653e-20,0,2.7937,-0.032627,0.1117,0.11172,1,0.122,1,0.0125,0
0.035074,-0.00040592,0.0003356,0.000123,0,0.00012248,-2.1075e-06,1.2547e-20,0,2.8159,-0.032886,0.11258,0.1126,1,0.123,1,0.0125,0
0.035349,-0.00040867,0.00034661,0.000124,0,0.00012348,-2.1247e-06,1.2811e-20,0,2.838,-0.033145,0.11347,0.11349,1,0.124,1,0.0125,0
0.035624,-0.0004114,0.00035789,0.000125,0,0.00012448,-2.1419e-06,1.3023e-20,0,2.8601,-0.033403,0.11435,0.11437,1,0.125,1,0.0125,0
0.035898,-0.0004141,0.00036945,0.000126,0,0.00012548,-2.1591e-06,1.2864e-20,0,2.8821,-0.033661,0.11523,0.11526,1,0.126,1,0.0125,0
0.036171,-0.00041677,0.00038128,0.000127,0,0.00012647,-2.1763e-06,1.3341e-20,0,2.9042,-0.033918,0.11611,0.11614,1,0.127,1,0.0125,0
0.036444,-0.00041942,0.00039339,0.000128,0,0.00012747,-2.1934e-06,1.3182e-20,0,2.9261,-0.034175,0.11699,0.11701,1,0.128,1,0.0125,0
0.036717,-0.00042203,0.00040579,0.000129,0,0.00012847,-2.2106e-06,1.3394e-20,0,2.9481,-0.034432,0.11786,0.11789,1,0.129,1,0.0125,0
0.036989,-0.00042461,0.00041848,0.00013,0,0.00012946,-2.2278e-06,1.35e-20,0,2.9699,-0.034687,0.11874,0.11877,1,0.13,1,0.0125,0
0.037249,-0.00042454,0.00043128,0.000131,0,0.00013043,-2.2447e-06,1.3553e-20,0,2.9911,-0.034937,0.11958,0.11961,1,0.131,1,0.0125,0
0.037519,-0.00042697,0.0004444,0.000132,0,0.00013143,-2.2618e-06,1.3553e-20,0,3.0128,-0.035191,0.12045,0.12048,1,0.132,1,0.0125,0
0.037788,-0.00042936,0.00045782,0.000133,0,0.00013242,-2.279e-06,1.3976e-20,0,3.0345,-0.035445,0.12132,0.12135,1,0.133,1,0.0125,0
0.038057,-0.0004317,0.00047154,0.000134,0,0.00013342,-2.2962e-06,1.3817e-20,0,3.0561,-0.035698,0.12218,0.12221,1,0.134,1,0.0125,0
0.038325,-0.000434,0.00048557,0.000135,0,0.00013441,-2.3134e-06,1.4082e-20,0,3.0777,-0.035951,0.12304,0.12307,1,0.135,1,0.0125,0
0.038593,-0.00043624,0.0004999,0.000136,0,0.00013541,-2.3306e-06,1.44e-20,0,3.0991,-0.036203,0.1239,0.12393,1,0.136,1,0.0125,0
0.038859,-0.00043843,0.00051456,0.000137,0,0.0001364,-2.3478e-06,1.4294e-20,0,3.1205,-0.036454,0.12475,0.12479,1,0.137,1,0.0125,0
0.039125,-0.00044058,0.00052953,0.000138,0,0.0001374,-2.365e-06,1.44e-20,0,3.1419,-0.036705,0.1256,0.12564,1,0.138,1,0.0125,0
0.03939,-0.00044266,0.00054483,0.000139,0,0.00013839,-2.3821e-06,1.44e-20,0,3.1631,-0.036954,0.12645,0.12649,1,0.139,1,0.0125,0
0.039654,-0.00044469,0.00056045,0.00014,0,0.00013939,-2.3993e-06,1.4611e-20,0,3.1843,-0.037204,0.12729,0.12734,1,0.14,1,0.0125,0
0.039917,-0.00044667,0.00057642,0.000141,0,0.00014038,-2.4165e-06,1.4611e-20,0,3.2054,-0.037452,0.12814,0.12818,1,0.141,1,0.0125,0
0.040179,-0.00044858,0.00059271,0.000142,0,0.00014137,-2.4337e-06,1.4823e-20,0,3.2264,-0.037699,0.12898,0.12902,1,0.142,1,0.0125,0
0.040441,-0.00045044,0.00060935,0.000143,0,0.00014237,-2.4509e-06,1.4929e-20,0,3.2473,-0.037946,0.12981,0.12986,1,0.143,1,0.0125,0
0.040701,-0.00045223,0.00062635,0.000144,0,0.00014336,-2.4681e-06,1.4929e-20,0,3.2681,-0.038192,0.13064,0.13069,1,0.144,1,0.0125,0
0.040961,-0.00045396,0.00064369,0.000145,0,0.00014435,-2.4852e-06,1.5035e-20,0,3.2889,-0.038437,0.13147,0.13152,1,0.145,1,0.0125,0
0.041219,-0.00045562,0.00066139,0.000146,0,0.00014534,-2.5024e-06,1.5141e-20,0,3.3095,-0.038681,0.13229,0.13235,1,0.146,1,0.0125,0
0.041476,-0.00045722,0.00067945,0.000147,0,0.00014633,-2.5196e-06,1.5352e-20,0,3.3301,-0.038924,0.13311,0.13317,1,0.147,1,0.0125,0
0.041732,-0.00045874,0.00069789,0.000148,0,0.00014732,-2.5368e-06,1.5035e-20,0,3.3505,-0.039166,0.13393,0.13398,1,0.148,1,0.0125,0
0.041988,-0.0004602,0.00071669,0.000149,0,0.00014831,-2.554e-06,1.5776e-20,0,3.3709,-0.039408,0.13474,0.1348,1,0.149,1,0.0125,0
0.042242,-0.00046158,0.00073587,0.00015,0,0.0001493,-2.5712e-06,1.5564e-20,0,3.3911,-0.039648,0.13555,0.13561,1,0.15,1,0.0125,0
0.042494,-0.00046288,0.00075544,0.000151,0,0.00015029,-2.5883e-06,1.5988e-20,0,3.4113,-0.039887,0.13635,0.13641,1,0.151,1,0.0125,0
0.042746,-0.00046411,0.00077539,0.000152,0,0.00015128,-2.6055e-06,1.567e-20,0,3.4313,-0.040126,0.13715,0.13721,1,0.152,1,0.0125,0
0.042996,-0.00046526,0.00079574,0.000153,0,0.00015227,-2.6227e-06,1.5882e-20,0,3.4512,-0.040363,0.13795,0.13801,1,0.153,1,0.0125,0
0.043246,-0.00046633,0.00081648,0.000154,0,0.00015326,-2.6399e-06,1.6411e-20,0,3.471,-0.040599,0.13874,0.1388,1,0.154,1,0.0125,0
0.043493,-0.00046732,0.00083763,0.000155,0,0.00015424,-2.6571e-06,1.6411e-20,0,3.4907,-0.040834,0.13952,0.13959,1,0.155,1,0.0125,0
0.04374,-0.00046822,0.00085919,0.000156,0,0.00015523,-2.6743e-06,1.6411e-20,0,3.5103,-0.041068,0.14031,0.14037,1,0.156,1,0.0125,0
0.043985,-0.00046903,0.00088115,0.000157,0,0.00015622,-2.6915e-06,1.6835e-20,0,3.5297,-0.041301,0.14108,0.14115,1,0.157,1,0.0125,0
0.044229,-0.00046976,0.00090354,0.000158,0,0.0001572,-2.7086e-06,1.6623e-20,0,3.549,-0.041533,0.14185,0.14192,1,0.158,1,0.0125,0
0.044471,-0.00047039,0.00092635,0.000159,0,0.00015819,-2.7258e-06,1.6623e-20,0,3.5682,-0.041764,0.14262,0.14269,1,0.159,1,0.0125,0
0.044712,-0.00047093,0.00094959,0.00016,0,0.00015917,-2.743e-06,1.6941e-20,0,3.5872,-0.041993,0.14338,0.14345,1,0.16,1,0.0125,0
0.044952,-0.00047137,0.00097327,0.000161,0,0.00016016,-2.7602e-06,1.6623e-20,0,3.6061,-0.042221,0.14413,0.14421,1,0.161,1,0.0125,0
0.04519,-0.00047171,0.00099738,0.000162,0,0.00016114,-2.7774e-06,1.6517e-20,0,3.6249,-0.042448,0.14488,0.14496,1,0.162,1,0.0125,0
0.045426,-0.00047196,0.0010219,0.000163,0,0.00016212,-2.7946e-06,1.6835e-20,0,3.6435,-0.042674,0.14562,0.1457,1,0.163,1,0.0125,0
0.045661,-0.0004721,0.001047,0.000164,0,0.0001631,-2.8118e-06,1.7364e-20,0,3.662,-0.042898,0.14636,0.14644,1,0.164,1,0.0125,0
0.045894,-0.00047213,0.0010724,0.000165,0,0.00016408,-2.8291e-06,1.6729e-20,0,3.6803,-0.043121,0.14709,0.14717,1,0.165,1,0.0125,0
0.046126,-0.00047206,0.0010984,0.000166,0,0.00016506,-2.8463e-06,1.7047e-20,0,3.6985,-0.043343,0.14782,0.1479,1,0.166,1,0.0125,0
0.046356,-0.00047187,0.0011248,0.000167,0,0.00016604,-2.8635e-06,1.747e-20,0,3.7165,-0.043563,0.14853,0.14862,1,0.167,1,0.0125,0
0.046584,-0.00047157,0.0011516,0.000168,0,0.00016702,-2.8807e-06,1.7258e-20,0,3.7344,-0.043782,0.14925,0.14933,1,0.168,1,0.0125,0
0.04681,-0.00047116,0.001179,0.000169,0,0.000168,-2.8979e-06,1.747e-20,0,3.7521,-0.044,0.14995,0.15004,1,0.169,1,0.0125,0
0.047034,-0.00047063,0.0012068,0.00017,0,0.00016897,-2.9152e-06,1.7364e-20,0,3.7696,-0.044216,0.15065,0.15074,1,0.17,1,0.0125,0
0.047257,-0.00046998,0.0012352,0.000171,0,0.00016995,-2.9324e-06,1.747e-20,0,3.7869,-0.044431,0.15134,0.15143,1,0.171,1,0.0125,0
0.047478,-0.0004692,0.001264,0.000172,0,0.00017092,-2.9497e-06,1.7999e-20,0,3.8041,-0.044644,0.15203,0.15212,1,0.172,1,0.0125,0
0.047696,-0.0004683,0.0012933,0.000173,0,0.0001719,-2.9669e-06,1.747e-20,0,3.8211,-0.044855,0.15271,0.1528,1,0.173,1,0.0125,0
0.047913,-0.00046727,0.0013232,0.000174,0,0.00017287,-2.9842e-06,1.7999e-20,0,3.8379,-0.045066,0.15338,0.15347,1,0.174,1,0.0125,0
0.048128,-0.00046611,0.0013535,0.000175,0,0.00017384,-3.0015e-06,1.7682e-20,0,3.8545,-0.045274,0.15404,0.15414,1,0.175,1,0.0125,0
0.04834,-0.00046481,0.0013844,0.000176,0,0.00017481,-3.0188e-06,1.8529e-20,0,3.871,-0.045481,0.15469,0.1548,1,0.176,1,0.0125,0
0.048551,-0.00046338,0.0014158,0.000177,0,0.00017578,-3.0361e-06,1.8846e-20,0,3.8872,-0.045687,0.15534,0.15544,1,0.177,1,0.0125,0
0.048759,-0.00046181,0.0014477,0.000178,0,0.00017675,-3.0534e-06,1.8317e-20,0,3.9033,-0.045891,0.15598,0.15609,1,0.178,1,0.0125,0
0.048966,-0.00046009,0.0014802,0.000179,0,0.00017771,-3.0707e-06,1.8635e-20,0,3.9191,-0.046093,0.15661,0.15672,1,0.179,1,0.0125,0
0.049137,-0.00045627,0.0015126,0.00018,0,0.00017853,-3.0913e-06,1.8952e-20,0,3.9314,-0.046345,0.1571,0.15721,1,0.18,1,0.0125,0
0.049306,-0.00045211,0.0015452,0.000181,0,0.00017934,-3.1098e-06,1.8741e-20,0,3.9434,-0.046563,0.15758,0.15769,1,0.181,1,0.0125,0
0.049504,-0.00044987,0.0015781,0.000182,0,0.0001803,-3.1273e-06,1.927e-20,0,3.9585,-0.046764,0.15818,0.1583,1,0.182,1,0.0125,0
0.049701,-0.00044743,0.0016115,0.000183,0,0.00018124,-3.1451e-06,1.8529e-20,0,3.9735,-0.046969,0.15878,0.15889,1,0.183,1,0.0125,0
0.049896,-0.0004448,0.0016455,0.000184,0,0.00018219,-3.163e-06,1.9376e-20,0,3.9883,-0.047175,0.15937,0.15949,1,0.184,1,0.0125,0
0.050088,-0.00044198,0.00168,0.000185,0,0.00018313,-3.1811e-06,1.9694e-20,0,4.0029,-0.047382,0.15996,0.16007,1,0.185,1,0.0125,0
0.050278,-0.00043896,0.001715,0.000186,0,0.00018407,-3.1993e-06,1.9482e-20,0,4.0173,-0.04759,0.16053,0.16065,1,0.186,1,0.0125,0
0.050466,-0.00043575,0.0017506,0.000187,0,0.000185,-3.2178e-06,1.9058e-20,0,4.0316,-0.0478,0.1611,0.16122,1,0.187,1,0.0125,0
0.050651,-0.00043233,0.0017868,0.000188,0,0.00018593,-3.2364e-06,1.9482e-20,0,4.0456,-0.048011,0.16166,0.16178,1,0.188,1,0.0125,0
0.050834,-0.0004287,0.0018235,0.000189,0,0.00018685,-3.2551e-06,1.9482e-20,0,4.0595,-0.048225,0.16221,0.16233,1,0.189,1,0.0125,0
0.051014,-0.00042486,0.0018607,0.00019,0,0.00018777,-3.2741e-06,1.9799e-20,0,4.0731,-0.048439,0.16276,0.16288,1,0.19,1,0.0125,0
0.051192,-0.0004208,0.0018985,0.000191,0,0.00018869,-3.2932e-06,1.9905e-20,0,4.0866,-0.048656,0.16329,0.16342,1,0.191,1,0.0125,0
0.051368,-0.00041653,0.0019369,0.000192,0,0.0001896,-3.3126e-06,1.9694e-20,0,4.0998,-0.048874,0.16382,0.16395,1,0.192,1,0.0125,0
0.051541,-0.00041203,0.0019755,0.000193,0,0.00019051,-3.3321e-06,2.0117e-20,0,4.1129,-0.049095,0.16434,0.16447,1,0.193,1,0.0125,0
0.051711,-0.00040726,0.0020146,0.000194,0,0.00019141,-3.3522e-06,2.0541e-20,0,4.1257,-0.049321,0.16485,0.16498,1,0.194,1,0.0125,0
0.051879,-0.00040223,0.0020543,0.000195,0,0.00019231,-3.3725e-06,2.0541e-20,0,4.1383,-0.049551,0.16535,0.16548,1,0.195,1,0.0125,0
0.052043,-0.00039695,0.0020946,0.000196,0,0.0001932,-3.3932e-06,2.0964e-20,0,4.1506,-0.049786,0.16584,0.16598,1,0.196,1,0.0125,0
0.052206,-0.0003914,0.0021355,0.000197,0,0.00019409,-3.4143e-06,2.0752e-20,0,4.1628,-0.050024,0.16633,0.16646,1,0.197,1,0.0125,0
0.052365,-0.00038558,0.0021769,0.000198,0,0.00019497,-3.4357e-06,2.107e-20,0,4.1747,-0.050267,0.1668,0.16694,1,0.198,1,0.0125,0
0.052522,-0.00037949,0.002219,0.000199,0,0.00019585,-3.4575e-06,2.0541e-20,0,4.1863,-0.050515,0.16727,0.1674,1,0.199,1,0.0125,0
0.052675,-0.00037313,0.0022617,0.0002,0,0.00019672,-3.4797e-06,2.0964e-20,0,4.1978,-0.050767,0.16772,0.16786,1,0.2,1,0.0125,0
0.052826,-0.00036648,0.002305,0.000201,0,0.00019758,-3.5023e-06,2.1176e-20,0,4.209,-0.051025,0.16817,0.16831,1,0.201,1,0.0125,0
0.052974,-0.00035955,0.002349,0.000202,0,0.00019844,-3.5254e-06,2.1282e-20,0,4.2199,-0.051286,0.16861,0.16875,1,0.202,1,0.0125,0
0.053118,-0.00035233,0.0023935,0.000203,0,0.00019929,-3.5488e-06,2.1493e-20,0,4.2306,-0.051554,0.16903,0.16918,1,0.203,1,0.0125,0
0.05326,-0.00034481,0.0024388,0.000204,0,0.00020014,-3.5726e-06,2.1811e-20,0,4.2411,-0.051826,0.16945,0.16959,1,0.204,1,0.0125,0
0.053399,-0.00033699,0.0024846,0.000205,0,0.00020098,-3.5969e-06,2.2023e-20,0,4.2513,-0.052103,0.16985,0.17,1,0.205,1,0.0125,0
0.053534,-0.00032887,0.0025311,0.000206,0,0.00020182,-3.6217e-06,2.2235e-20,0,4.2612,-0.052386,0.17025,0.1704,1,0.206,1,0.0125,0
0.053666,-0.00032044,0.0025783,0.000207,0,0.00020264,-3.6469e-06,2.2023e-20,0,4.2709,-0.052674,0.17064,0.17079,1,0.207,1,0.0125,0
0.053795,-0.0003117,0.0026261,0.000208,0,0.00020346,-3.6725e-06,2.2235e-20,0,4.2803,-0.052968,0.17101,0.17116,1,0.208,1,0.0125,0
0.053921,-0.00030264,0.0026746,0.000209,0,0.00020428,-3.6987e-06,2.2658e-20,0,4.2895,-0.053268,0.17137,0.17153,1,0.209,1,0.0125,0
0.054043,-0.00029326,0.0027237,0.00021,0,0.00020509,-3.7253e-06,2.287e-20,0,4.2983,-0.053574,0.17173,0.17188,1,0.21,1,0.0125,0
0.054162,-0.00028355,0.0027736,0.000211,0,0.00020589,-3.7524e-06,2.3082e-20,0,4.307,-0.053886,0.17207,0.17223,1,0.211,1,0.0125,0
0.054278,-0.00027352,0.0028241,0.000212,0,0.00020668,-3.78e-06,2.2552e-20,0,4.3153,-0.054204,0.1724,0.17256,1,0.212,1,0.0125,0
0.05439,-0.00026314,0.0028754,0.000213,0,0.00020747,-3.8082e-06,2.3293e-20,0,4.3233,-0.054528,0.17272,0.17288,1,0.213,1,0.0125,0
0.054498,-0.00025243,0.0029273,0.000214,0,0.00020824,-3.8368e-06,2.3823e-20,0,4.3311,-0.054859,0.17303,0.17319,1,0.214,1,0.0125,0
0.054603,-0.00024138,0.00298,0.000215,0,0.00020902,-3.8661e-06,2.3611e-20,0,4.3386,-0.055197,0.17333,0.17349,1,0.215,1,0.0125,0
0.054705,-0.00022997,0.0030333,0.000216,0,0.00020978,-3.8958e-06,2.3505e-20,0,4.3458,-0.055542,0.17361,0.17378,1,0.216,1,0.0125,0
0.054747,-0.00022182,0.0030863,0.000217,0,0.00021028,-3.9264e-06,2.4352e-20,0,4.347,-0.055898,0.17366,0.17383,1,0.217,1,0.0125,0
0.054784,-0.00021295,0.0031396,0.000218,0,0.00021077,-3.9561e-06,2.414e-20,0,4.3478,-0.05624,0.17369,0.17386,1,0.218,1,0.0125,0
0.054874,-0.00020078,0.003194,0.000219,0,0.0002115,-3.9875e-06,2.4352e-20,0,4.354,-0.05661,0.17394,0.17411,1,0.219,1,0.0125,0
0.054961,-0.00018825,0.0032491,0.00022,0,0.00021221,-4.0196e-06,2.4882e-20,0,4.3601,-0.05699,0.17418,0.17435,1,0.22,1,0.0125,0
0.055044,-0.00017539,0.0033049,0.000221,0,0.00021291,-4.0522e-06,2.414e-20,0,4.3659,-0.05738,0.17441,0.17458,1,0.221,1,0.0125,0
0.055123,-0.00016219,0.0033615,0.000222,0,0.0002136,-4.0855e-06,2.5199e-20,0,4.3714,-0.05778,0.17463,0.1748,1,0.222,1,0.0125,0
0.055199,-0.00014864,0.0034188,0.000223,0,0.00021427,-4.1195e-06,2.4776e-20,0,4.3768,-0.058191,0.17484,0.17502,1,0.223,1,0.0125,0
0.055271,-0.00013474,0.0034768,0.000224,0,0.00021494,-4.154e-06,2.4987e-20,0,4.3818,-0.058612,0.17505,0.17522,1,0.224,1,0.0125,0
0.05534,-0.0001205,0.0035356,0.000225,0,0.00021559,-4.1893e-06,2.5729e-20,0,4.3867,-0.059045,0.17524,0.17542,1,0.225,1,0.0125,0
0.055405,-0.0001059,0.0035952,0.000226,0,0.00021623,-4.2252e-06,2.6258e-20,0,4.3913,-0.059488,0.17542,0.1756,1,0.226,1,0.0125,0
0.055466,-9.094e-05,0.0036556,0.000227,0,0.00021686,-4.2619e-06,2.6046e-20,0,4.3956,-0.059943,0.17559,0.17577,1,0.227,1,0.0125,0
0.055524,-7.5624e-05,0.0037167,0.000228,0,0.00021748,-4.2992e-06,2.6258e-20,0,4.3997,-0.060409,0.17576,0.17594,1,0.228,1,0.0125,0
0.055578,-5.9946e-05,0.0037786,0.000229,0,0.00021808,-4.3373e-06,2.6258e-20,0,4.4036,-0.060887,0.17591,0.17609,1,0.229,1,0.0125,0
0.055628,-4.3901e-05,0.0038414,0.00023,0,0.00021867,-4.3761e-06,2.647e-20,0,4.4072,-0.061377,0.17605,0.17623,1,0.23,1,0.0125,0
0.055674,-2.7488e-05,0.0039049,0.000231,0,0.00021925,-4.4157e-06,2.6576e-20,0,4.4105,-0.061879,0.17618,0.17637,1,0.231,1,0.0125,0
0.055716,-1.0705e-05,0.0039693,0.000232,0,0.00021981,-4.4561e-06,2.6682e-20,0,4.4135,-0.062393,0.1763,0.17649,1,0.232,1,0.0125,0
0.055754,6.4521e-06,0.0040345,0.000233,0,0.00022036,-4.4972e-06,2.7529e-20,0,4.4163,-0.06292,0.17641,0.1766,1,0.233,1,0.0125,0
0.055788,2.3985e-05,0.0041005,0.000234,0,0.00022089,-4.5391e-06,2.7317e-20,0,4.4189,-0.063461,0.17651,0.1767,1,0.234,1,0.0125,0
0.055818,4.1897e-05,0.0041674,0.000235,0,0.00022142,-4.5819e-06,2.7952e-20,0,4.4211,-0.064014,0.1766,0.17679,1,0.235,1,0.0125,0
0.055844,6.0191e-05,0.0042352,0.000236,0,0.00022192,-4.6255e-06,2.8164e-20,0,4.4231,-0.06458,0.17668,0.17687,1,0.236,1,0.0125,0
0.055866,7.8866e-05,0.0043038,0.000237,0,0.00022242,-4.67e-06,2.8164e-20,0,4.4248,-0.065161,0.17675,0.17694,1,0.237,1,0.0125,0
0.055884,9.7927e-05,0.0043733,0.000238,0,0.0002229,-4.7153e-06,2.8376e-20,0,4.4262,-0.065755,0.1768,0.177,1,0.238,1,0.0125,0
0.055898,0.00011738,0.0044437,0.000239,0,0.00022336,-4.7616e-06,2.8799e-20,0,4.4274,-0.066363,0.17685,0.17704,1,0.239,1,0.0125,0
0.055907,0.00013721,0.0045151,0.00024,0,0.00022381,-4.8087e-06,2.9223e-20,0,4.4282,-0.066986,0.17688,0.17708,1,0.24,1,0.0125,0
0.055913,0.00015744,0.0045874,0.000241,0,0.00022425,-4.8568e-06,2.9434e-20,0,4.4288,-0.067624,0.1769,0.1771,1,0.241,1,0.0125,0
0.055914,0.00017806,0.0046606,0.000242,0,0.00022467,-4.9058e-06,2.9434e-20,0,4.4291,-0.068277,0.17691,0.17711,1,0.242,1,0.0125,0
0.05591,0.00019908,0.0047347,0.000243,0,0.00022508,-4.9558e-06,2.9858e-20,0,4.4291,-0.068945,0.17691,0.17711,1,0.243,1,0.0125,0
0.055903,0.00022049,0.0048098,0.000244,0,0.00022547,-5.0068e-06,3.007e-20,0,4.4288,-0.069628,0.1769,0.1771,1,0.244,1,0.0125,0
0.055891,0.0002423,0.0048859,0.000245,0,0.00022585,-5.0588e-06,3.0917e-20,0,4.4282,-0.070328,0.17688,0.17707,1,0.245,1,0.0125,0
0.055874,0.00026451,0.0049622,0.000246,0,0.00022621,-5.1118e-06,3.0493e-20,0,4.4273,-0.071044,0.17684,0.17704,1,0.246,1,0.0125,0
0.055854,0.00028718,0.0050395,0.000247,0,0.00022656,-5.1659e-06,3.0917e-20,0,4.4261,-0.071776,0.17679,0.17699,1,0.247,1,0.0125,0
0.055828,0.00031028,0.0051177,0.000248,0,0.00022689,-5.2211e-06,3.1128e-20,0,4.4246,-0.072526,0.17673,0.17693,1,0.248,1,0.0125,0
0.055799,0.0003338,0.005197,0.000249,0,0.00022721,-5.2773e-06,3.2187e-20,0,4.4229,-0.073292,0.17666,0.17686,1,0.249,1,0.0125,0
0.055764,0.00035776,0.0052773,0.00025,0,0.00022751,-5.3347e-06,3.2611e-20,0,4.4208,-0.074075,0.17658,0.17678,1,0.25,1,0.0125,0
0.055725,0.00038217,0.0053577,0.000251,0,0.00022779,-5.3931e-06,3.2611e-20,0,4.4185,-0.074876,0.17648,0.17668,1,0.251,1,0.0125,0
0.055682,0.00040706,0.0054391,0.000252,0,0.00022807,-5.4527e-06,3.2823e-20,0,4.4158,-0.075694,0.17637,0.17658,1,0.252,1,0.0125,0
0.055634,0.00043241,0.0055215,0.000253,0,0.00022832,-5.5134e-06,3.3246e-20,0,4.4129,-0.07653,0.17626,0.17646,1,0.253,1,0.0125,0
0.055581,0.00045822,0.005605,0.000254,0,0.00022856,-5.5752e-06,3.367e-20,0,4.4096,-0.077383,0.17613,0.17633,1,0.254,1,0.0125,0
0.055523,0.0004845,0.0056895,0.000255,0,0.00022879,-5.6382e-06,3.3881e-20,0,4.4061,-0.078255,0.17598,0.17619,1,0.255,1,0.0125,0
0.055461,0.00051123,0.0057751,0.000256,0,0.000229,-5.7024e-06,3.4305e-20,0,4.4022,-0.079145,0.17583,0.17603,1,0.256,1,0.0125,0
0.055394,0.00053843,0.0058618,0.000257,0,0.00022919,-5.7678e-06,3.3881e-20,0,4.3981,-0.080053,0.17566,0.17587,1,0.257,1,0.0125,0
0.055322,0.00056608,0.0059496,0.000258,0,0.00022937,-5.8344e-06,3.5999e-20,0,4.3936,-0.080981,0.17548,0.17569,1,0.258,1,0.0125,0
0.055246,0.00059419,0.0060385,0.000259,0,0.00022953,-5.9022e-06,3.5152e-20,0,4.3888,-0.081928,0.17529,0.1755,1,0.259,1,0.0125,0
0.055164,0.00062275,0.0061285,0.00026,0,0.00022968,-5.9714e-06,3.6634e-20,0,4.3837,-0.082894,0.17509,0.1753,1,0.26,1,0.0125,0
0.055078,0.00065176,0.0062197,0.000261,0,0.00022981,-6.0418e-06,3.6634e-20,0,4.3783,-0.08388,0.17487,0.17508,1,0.261,1,0.0125,0
0.054986,0.00068123,0.006312,0.000262,0,0.00022993,-6.1135e-06,3.7693e-20,0,4.3726,-0.084886,0.17465,0.17485,1,0.262,1,0.0125,0
0.05489,0.00071114,0.0064055,0.000263,0,0.00023002,-6.1866e-06,3.7693e-20,0,4.3666,-0.085913,0.1744,0.17461,1,0.263,1,0.0125,0
0.054789,0.0007415,0.0065002,0.000264,0,0.00023011,-6.261e-06,3.8328e-20,0,4.3602,-0.08696,0.17415,0.17435,1,0.264,1,0.0125,0
0.054683,0.00077229,0.0065961,0.000265,0,0.00023017,-6.3368e-06,3.7693e-20,0,4.3535,-0.088028,0.17388,0.17409,1,0.265,1,0.0125,0
0.054572,0.00080353,0.0066932,0.000266,0,0.00023022,-6.414e-06,3.8964e-20,0,4.3465,-0.089118,0.1736,0.17381,1,0.266,1,0.0125,0
0.054456,0.00083519,0.0067915,0.000267,0,0.00023025,-6.4926e-06,3.9387e-20,0,4.3391,-0.090229,0.17331,0.17351,1,0.267,1,0.0125,0
0.054334,0.00086729,0.0068911,0.000268,0,0.00023027,-6.5726e-06,4.0022e-20,0,4.3314,-0.091362,0.173,0.1732,1,0.268,1,0.0125,0
0.054208,0.00089981,0.006992,0.000269,0,0.00023027,-6.6541e-06,4.0658e-20,0,4.3234,-0.092517,0.17268,0.17288,1,0.269,1,0.0125,0
0.054077,0.00093275,0.0070942,0.00027,0,0.00023025,-6.7371e-06,4.1081e-20,0,4.3151,-0.093695,0.17235,0.17255,1,0.27,1,0.0125,0
0.053757,0.00092431,0.0071941,0.000271,0,0.00022977,-6.8128e-06,4.0869e-20,0,4.2962,-0.094756,0.17159,0.17179,1,0.271,1,0.0125,0
0.053613,0.00095705,0.0072969,0.000272,0,0.00022971,-6.898e-06,4.1293e-20,0,4.2868,-0.095964,0.17122,0.17142,1,0.272,1,0.0125,0
0.053464,0.00099015,0.0074011,0.000273,0,0.00022963,-6.9853e-06,4.2352e-20,0,4.2771,-0.0972,0.17083,0.17103,1,0.273,1,0.0125,0
0.05331,0.0010235,0.0075067,0.000274,0,0.00022953,-7.0741e-06,4.2352e-20,0,4.267,-0.098458,0.17043,0.17063,1,0.274,1,0.0125,0
0.053149,0.0010569,0.0076137,0.000275,0,0.00022942,-7.1645e-06,4.3622e-20,0,4.2564,-0.099738,0.17001,0.1702,1,0.275,1,0.0125,0
0.052984,0.0010906,0.0077221,0.000276,0,0.00022928,-7.2565e-06,4.341e-20,0,4.2454,-0.10104,0.16957,0.16977,1,0.276,1,0.0125,0
0.052812,0.0011245,0.0078318,0.000277,0,0.00022913,-7.3501e-06,4.574e-20,0,4.234,-0.10236,0.16911,0.16931,1,0.277,1,0.0125,0
0.052635,0.0011585,0.007943,0.000278,0,0.00022895,-7.4454e-06,4.4893e-20,0,4.2222,-0.10371,0.16864,0.16883,1,0.278,1,0.0125,0
0.052453,0.0011927,0.0080557,0.000279,0,0.00022876,-7.5423e-06,4.6375e-20,0,4.2099,-0.10508,0.16815,0.16834,1,0.279,1,0.0125,0
0.052264,0.0012271,0.0081698,0.00028,0,0.00022855,-7.6409e-06,4.6163e-20,0,4.1972,-0.10647,0.16764,0.16784,1,0.28,1,0.0125,0
0.052071,0.0012617,0.0082855,0.000281,0,0.00022832,-7.7412e-06,4.6163e-20,0,4.1841,-0.10789,0.16712,0.16731,1,0.281,1,0.0125,0
0.051871,0.0012964,0.0084026,0.000282,0,0.00022807,-7.8433e-06,4.7857e-20,0,4.1705,-0.10933,0.16657,0.16677,1,0.282,1,0.0125,0
0.051667,0.0013312,0.0085213,0.000283,0,0.0002278,-7.9472e-06,4.8704e-20,0,4.1566,-0.11079,0.16602,0.16621,1,0.283,1,0.0125,0
0.051456,0.0013662,0.0086417,0.000284,0,0.00022751,-8.0528e-06,4.8704e-20,0,4.1422,-0.11228,0.16544,0.16564,1,0.284,1,0.0125,0
0.051241,0.0014014,0.0087636,0.000285,0,0.00022721,-8.1603e-06,4.9551e-20,0,4.1275,-0.11379,0.16485,0.16505,1,0.285,1,0.0125,0
0.051019,0.0014367,0.0088871,0.000286,0,0.00022688,-8.2696e-06,4.9975e-20,0,4.1123,-0.11533,0.16424,0.16444,1,0.286,1,0.0125,0
0.050793,0.0014721,0.0090124,0.000287,0,0.00022654,-8.3808e-06,4.934e-20,0,4.0967,-0.1169,0.16362,0.16382,1,0.287,1,0.0125,0
0.050561,0.0015077,0.0091393,0.000288,0,0.00022618,-8.4939e-06,5.1034e-20,0,4.0808,-0.11849,0.16298,0.16318,1,0.288,1,0.0125,0
0.050323,0.0015433,0.009268,0.000289,0,0.0002258,-8.6089e-06,5.1669e-20,0,4.0644,-0.1201,0.16233,0.16253,1,0.289,1,0.0125,0
0.050081,0.0015791,0.0093984,0.00029,0,0.0002254,-8.7258e-06,5.2304e-20,0,4.0476,-0.12175,0.16165,0.16185,1,0.29,1,0.0125,0
0.049833,0.001615,0.0095306,0.000291,0,0.00022499,-8.8447e-06,5.3363e-20,0,4.0305,-0.12341,0.16097,0.16117,1,0.291,1,0.0125,0
0.04958,0.0016509,0.0096647,0.000292,0,0.00022455,-8.9656e-06,5.4422e-20,0,4.0129,-0.12511,0.16027,0.16047,1,0.292,1,0.0125,0
0.049321,0.001687,0.0098006,0.000293,0,0.0002241,-9.0885e-06,5.4634e-20,0,3.995,-0.12683,0.15955,0.15975,1,0.293,1,0.0125,0
0.049058,0.0017231,0.0099385,0.000294,0,0.00022364,-9.2134e-06,5.6328e-20,0,3.9767,-0.12859,0.15881,0.15902,1,0.294,1,0.0125,0
0.048789,0.0017594,0.010078,0.000295,0,0.00022315,-9.3404e-06,5.6963e-20,0,3.958,-0.13036,0.15807,0.15827,1,0.295,1,0.0125,0
0.048515,0.0017956,0.01022,0.000296,0,0.00022265,-9.4695e-06,5.781e-20,0,3.939,-0.13217,0.1573,0.15751,1,0.296,1,0.0125,0
0.048237,0.0018319,0.010364,0.000297,0,0.00022213,-9.6007e-06,5.8022e-20,0,3.9196,-0.13401,0.15653,0.15673,1,0.297,1,0.0125,0
0.047953,0.0018683,0.010509,0.000298,0,0.00022159,-9.734e-06,6.0351e-20,0,3.8998,-0.13587,0.15573,0.15594,1,0.298,1,0.0125,0
0.047665,0.0019047,0.010657,0.000299,0,0.00022103,-9.8694e-06,5.9081e-20,0,3.8797,-0.13776,0.15493,0.15514,1,0.299,1,0.0125,0
0.047371,0.0019411,0.010807,0.0003,0,0.00022046,-1.0007e-05,6.0563e-20,0,3.8593,-0.13969,0.15411,0.15432,1,0.3,1,0.0125,0
0.047073,0.0019776,0.01096,0.000301,0,0.00021988,-1.0147e-05,6.0986e-20,0,3.8385,-0.14164,0.15327,0.15349,1,0.301,1,0.0125,0
0.046771,0.002014,0.011114,0.000302,0,0.00021928,-1.0289e-05,6.0775e-20,0,3.8173,-0.14362,0.15243,0.15265,1,0.302,1,0.0125,0
0.046464,0.0020505,0.011271,0.000303,0,0.00021866,-1.0433e-05,6.3951e-20,0,3.7959,-0.14563,0.15157,0.15179,1,0.303,1,0.0125,0
0.046152,0.0020869,0.01143,0.000304,0,0.00021802,-1.0579e-05,6.3527e-20,0,3.7741,-0.14767,0.15069,0.15092,1,0.304,1,0.0125,0
0.045836,0.0021233,0.011592,0.000305,0,0.00021737,-1.0728e-05,6.5645e-20,0,3.752,-0.14974,0.14981,0.15003,1,0.305,1,0.0125,0
0.045515,0.0021597,0.011756,0.000306,0,0.00021671,-1.0879e-05,6.5645e-20,0,3.7296,-0.15183,0.14891,0.14914,1,0.306,1,0.0125,0
0.04519,0.002196,0.011923,0.000307,0,0.00021603,-1.1032e-05,6.6069e-20,0,3.7069,-0.15396,0.148,0.14823,1,0.307,1,0.0125,0
0.044861,0.0022322,0.012092,0.000308,0,0.00021534,-1.1188e-05,6.6916e-20,0,3.6839,-0.15612,0.14708,0.14731,1,0.308,1,0.0125,0
0.044528,0.0022684,0.012263,0.000309,0,0.00021463,-1.1346e-05,6.9033e-20,0,3.6606,-0.15831,0.14614,0.14637,1,0.309,1,0.0125,0
0.04419,0.0023045,0.012438,0.00031,0,0.00021391,-1.1506e-05,6.9668e-20,0,3.637,-0.16053,0.14519,0.14543,1,0.31,1,0.0125,0
0.043849,0.0023405,0.012615,0.000311,0,0.00021317,-1.1668e-05,6.988e-20,0,3.6131,-0.16278,0.14424,0.14448,1,0.311,1,0.0125,0
0.043504,0.0023763,0.012793,0.000312,0,0.00021242,-1.1833e-05,7.1998e-20,0,3.5889,-0.16507,0.14327,0.14351,1,0.312,1,0.0125,0
0.043155,0.002412,0.012974,0.000313,0,0.00021166,-1.2e-05,7.2633e-20,0,3.5645,-0.16738,0.14229,0.14253,1,0.313,1,0.0125,0
0.042802,0.0024476,0.013158,0.000314,0,0.00021088,-1.217e-05,7.221e-20,0,3.5399,-0.16973,0.1413,0.14155,1,0.314,1,0.0125,0
0.042446,0.0024829,0.013344,0.000315,0,0.00021009,-1.2342e-05,7.3692e-20,0,3.515,-0.17211,0.1403,0.14055,1,0.315,1,0.0125,0
0.042086,0.002518,0.013532,0.000316,0,0.00020929,-1.2517e-05,7.5174e-20,0,3.4898,-0.17452,0.13929,0.13955,1,0.316,1,0.0125,0
0.041723,0.0025529,0.013724,0.000317,0,0.00020848,-1.2694e-05,7.5809e-20,0,3.4645,-0.17697,0.13827,0.13853,1,0.317,1,0.0125,0
0.041357,0.0025876,0.013919,0.000318,0,0.00020766,-1.2874e-05,7.7504e-20,0,3.4389,-0.17945,0.13724,0.13751,1,0.318,1,0.0125,0
0.040988,0.002622,0.014115,0.000319,0,0.00020682,-1.3057e-05,7.8562e-20,0,3.4131,-0.18196,0.13621,0.13648,1,0.319,1,0.0125,0
0.040616,0.0026562,0.014313,0.00032,0,0.00020598,-1.3241e-05,7.9198e-20,0,3.3871,-0.1845,0.13517,0.13544,1,0.32,1,0.0125,0
0.04024,0.00269,0.014514,0.000321,0,0.00020512,-1.3428e-05,8.2162e-20,0,3.361,-0.18707,0.13412,0.13439,1,0.321,1,0.0125,0
0.039862,0.0027235,0.014718,0.000322,0,0.00020426,-1.3618e-05,8.2162e-20,0,3.3346,-0.18967,0.13306,0.13334,1,0.322,1,0.0125,0
0.039481,0.0027566,0.014924,0.000323,0,0.00020338,-1.3809e-05,8.428e-20,0,3.3082,-0.19229,0.132,0.13228,1,0.323,1,0.0125,0
0.039098,0.0027894,0.015134,0.000324,0,0.0002025,-1.4002e-05,8.4068e-20,0,3.2815,-0.19494,0.13093,0.13122,1,0.324,1,0.0125,0
0.038713,0.0028218,0.015345,0.000325,0,0.00020161,-1.4197e-05,8.6397e-20,0,3.2548,-0.1976,0.12985,0.13015,1,0.325,1,0.0125,0
0.038325,0.0028538,0.015559,0.000326,0,0.00020072,-1.4394e-05,8.7244e-20,0,3.2279,-0.20029,0.12877,0.12907,1,0.326,1,0.0125,0
0.037934,0.0028853,0.015777,0.000327,0,0.00019981,-1.4593e-05,8.7668e-20,0,3.2009,-0.203,0.12769,0.12799,1,0.327,1,0.0125,0
0.037542,0.0029163,0.015999,0.000328,0,0.0001989,-1.4793e-05,8.9362e-20,0,3.1738,-0.20573,0.1266,0.12691,1,0.328,1,0.0125,0
0.037148,0.0029468,0.016225,0.000329,0,0.00019798,-1.4996e-05,8.9574e-20,0,3.1466,-0.20848,0.1255,0.12582,1,0.329,1,0.0125,0
0.036751,0.0029769,0.016455,0.00033,0,0.00019706,-1.52e-05,9.0209e-20,0,3.1192,-0.21125,0.1244,0.12472,1,0.33,1,0.0125,0
0.036353,0.0030065,0.016689,0.000331,0,0.00019612,-1.5405e-05,9.148e-20,0,3.0918,-0.21404,0.1233,0.12363,1,0.331,1,0.0125,0
0.035954,0.0030355,0.016925,0.000332,0,0.00019519,-1.5613e-05,9.4021e-20,0,3.0643,-0.21684,0.12219,0.12253,1,0.332,1,0.0125,0
0.035553,0.0030641,0.017165,0.000333,0,0.00019424,-1.5821e-05,9.6138e-20,0,3.0367,-0.21966,0.12108,0.12142,1,0.333,1,0.0125,0
0.03515,0.003092,0.017409,0.000334,0,0.00019329,-1.6032e-05,9.5291e-20,0,3.009,-0.2225,0.11997,0.12031,1,0.334,1,0.0125,0
0.034746,0.0031194,0.017656,0.000335,0,0.00019234,-1.6243e-05,9.8891e-20,0,2.9812,-0.22534,0.11885,0.1192,1,0.335,1,0.0125,0
0.034341,0.0031462,0.017907,0.000336,0,0.00019138,-1.6456e-05,1.0016e-19,0,2.9534,-0.22821,0.11773,0.11809,1,0.336,1,0.0125,0
0.033935,0.0031724,0.018161,0.000337,0,0.00019041,-1.6671e-05,1.0122e-19,0,2.9254,-0.23108,0.11661,0.11697,1,0.337,1,0.0125,0
0.033528,0.0031981,0.01842,0.000338,0,0.00018944,-1.6886e-05,1.0164e-19,0,2.8975,-0.23396,0.11548,0.11585,1,0.338,1,0.0125,0
0.03312,0.0032231,0.018679,0.000339,0,0.00018847,-1.7103e-05,1.0355e-19,0,2.8694,-0.23685,0.11435,0.11473,1,0.339,1,0.0125,0
0.032711,0.0032475,0.018943,0.00034,0,0.00018749,-1.732e-05,1.0249e-19,0,2.8413,-0.23974,0.11322,0.11361,1,0.34,1,0.0125,0
0.032302,0.0032712,0.019212,0.000341,0,0.0001865,-1.7538e-05,1.0461e-19,0,2.8132,-0.24264,0.11209,0.11248,1,0.341,1,0.0125,0
0.031892,0.0032944,0.019483,0.000342,0,0.00018551,-1.7756e-05,1.063e-19,0,2.7851,-0.24553,0.11096,0.11136,1,0.342,1,0.0125,0
0.031482,0.0033168,0.01976,0.000343,0,0.00018452,-1.7975e-05,1.0778e-19,0,2.7569,-0.24843,0.10982,0.11023,1,0.343,1,0.0125,0
0.031072,0.0033386,0.020039,0.000344,0,0.00018353,-1.8195e-05,1.0927e-19,0,2.7286,-0.25132,0.10868,0.1091,1,0.344,1,0.0125,0
0.030661,0.0033597,0.020324,0.000345,0,0.00018253,-1.8415e-05,1.1033e-19,0,2.7004,-0.25421,0.10755,0.10797,1,0.345,1,0.0125,0
0.03025,0.0033801,0.020613,0.000346,0,0.00018153,-1.8634e-05,1.1138e-19,0,2.6721,-0.25709,0.10641,0.10684,1,0.346,1,0.0125,0
0.02984,0.0033998,0.020906,0.000347,0,0.00018052,-1.8854e-05,1.135e-19,0,2.6438,-0.25996,0.10527,0.10571,1,0.347,1,0.0125,0
0.02943,0.0034188,0.021204,0.000348,0,0.00017952,-1.9074e-05,1.1435e-19,0,2.6155,-0.26283,0.10413,0.10458,1,0.348,1,0.0125,0
0.02902,0.003437,0.021508,0.000349,0,0.00017851,-1.9294e-05,1.1562e-19,0,2.5872,-0.26568,0.10299,0.10344,1,0.349,1,0.0125,0
0.028611,0.0034544,0.021818,0.00035,0,0.00017749,-1.9513e-05,1.1731e-19,0,2.5589,-0.26852,0.10184,0.10231,1,0.35,1,0.0125,0
0.028202,0.0034711,0.022133,0.000351,0,0.00017648,-1.9732e-05,1.1816e-19,0,2.5306,-0.27134,0.1007,0.10118,1,0.351,1,0.0125,0
0.027794,0.003487,0.022455,0.000352,0,0.00017547,-1.995e-05,1.171e-19,0,2.5023,-0.27414,0.099563,0.10005,1,0.352,1,0.0125,0
0.027386,0.0035021,0.022782,0.000353,0,0.00017445,-2.0168e-05,1.2282e-19,0,2.4741,-0.27691,0.098422,0.098917,1,0.353,1,0.0125,0
0.02698,0.0035164,0.023116,0.000354,0,0.00017343,-2.0384e-05,1.2113e-19,0,2.4458,-0.27967,0.097282,0.097786,1,0.354,1,0.0125,0
0.026575,0.00353,0.023454,0.000355,0,0.00017241,-2.06e-05,1.2409e-19,0,2.4176,-0.2824,0.096143,0.096657,1,0.355,1,0.0125,0
0.02617,0.0035427,0.023798,0.000356,0,0.00017139,-2.0814e-05,1.224e-19,0,2.3893,-0.2851,0.095004,0.095528,1,0.356,1,0.0125,0
0.025767,0.0035546,0.024149,0.000357,0,0.00017037,-2.1027e-05,1.26e-19,0,2.3611,-0.28777,0.093866,0.0944,1,0.357,1,0.0125,0
0.025365,0.0035658,0.024503,0.000358,0,0.00016934,-2.1238e-05,1.2642e-19,0,2.333,-0.2904,0.092729,0.093273,1,0.358,1,0.0125,0
0.024965,0.0035761,0.024865,0.000359,0,0.00016832,-2.1447e-05,1.2833e-19,0,2.3048,-0.293,0.091593,0.092148,1,0.359,1,0.0125,0
0.024566,0.0035856,0.025229,0.00036,0,0.00016729,-2.1655e-05,1.2811e-19,0,2.2768,-0.29556,0.090459,0.091024,1,0.36,1,0.0125,0
0.024168,0.0035943,0.0256,0.000361,0,0.00016627,-2.186e-05,1.2811e-19,0,2.2487,-0.29808,0.089325,0.089901,1,0.361,1,0.0125,0
0.023773,0.0036021,0.025979,0.000362,0,0.00016524,-2.2064e-05,1.3277e-19,0,2.2207,-0.30056,0.088194,0.088781,1,0.362,1,0.0125,0
0.023379,0.0036091,0.026364,0.000363,0,0.00016422,-2.2265e-05,1.3256e-19,0,2.1927,-0.30299,0.087065,0.087663,1,0.363,1,0.0125,0
0.022988,0.0036153,0.026753,0.000364,0,0.00016319,-2.2463e-05,1.3722e-19,0,2.1649,-0.30537,0.085938,0.086548,1,0.364,1,0.0125,0
0.022598,0.0036207,0.027148,0.000365,0,0.00016217,-2.2659e-05,1.3658e-19,0,2.137,-0.30771,0.084813,0.085434,1,0.365,1,0.0125,0
0.02221,0.0036252,0.027551,0.000366,0,0.00016114,-2.2852e-05,1.3616e-19,0,2.1093,-0.30999,0.08369,0.084323,1,0.366,1,0.0125,0
0.021825,0.003629,0.027961,0.000367,0,0.00016012,-2.3043e-05,1.3722e-19,0,2.0816,-0.31222,0.08257,0.083215,1,0.367,1,0.0125,0
0.021442,0.0036319,0.028379,0.000368,0,0.0001591,-2.323e-05,1.3849e-19,0,2.0539,-0.3144,0.081453,0.08211,1,0.368,1,0.0125,0
0.021061,0.003634,0.028804,0.000369,0,0.00015808,-2.3414e-05,1.3976e-19,0,2.0264,-0.31651,0.080339,0.081008,1,0.369,1,0.0125,0
0.020683,0.0036353,0.029236,0.00037,0,0.00015706,-2.3594e-05,1.4082e-19,0,1.9989,-0.31857,0.079229,0.07991,1,0.37,1,0.0125,0
0.020308,0.0036359,0.029676,0.000371,0,0.00015604,-2.3771e-05,1.4103e-19,0,1.9716,-0.32056,0.078122,0.078816,1,0.371,1,0.0125,0
0.019936,0.0036357,0.030123,0.000372,0,0.00015502,-2.3945e-05,1.4442e-19,0,1.9443,-0.32248,0.077019,0.077725,1,0.372,1,0.0125,0
0.019566,0.0036347,0.030579,0.000373,0,0.00015401,-2.4114e-05,1.4315e-19,0,1.9172,-0.32434,0.07592,0.076639,1,0.373,1,0.0125,0
0.0192,0.003633,0.031041,0.000374,0,0.000153,-2.428e-05,1.44e-19,0,1.8902,-0.32612,0.074826,0.075558,1,0.374,1,0.0125,0
0.018836,0.0036306,0.031512,0.000375,0,0.00015199,-2.4441e-05,1.4632e-19,0,1.8633,-0.32784,0.073736,0.074482,1,0.375,1,0.0125,0
0.018476,0.0036275,0.03199,0.000376,0,0.00015099,-2.4599e-05,1.4738e-19,0,1.8365,-0.32949,0.072652,0.073411,1,0.376,1,0.0125,0
0.018119,0.0036237,0.032476,0.000377,0,0.00014999,-2.4752e-05,1.4908e-19,0,1.8099,-0.33106,0.071573,0.072345,1,0.377,1,0.0125,0
0.017766,0.0036192,0.03297,0.000378,0,0.000149,-2.49e-05,1.4992e-19,0,1.7834,-0.33255,0.070499,0.071285,1,0.378,1,0.0125,0
0.017416,0.0036142,0.033471,0.000379,0,0.00014801,-2.5044e-05,1.495e-19,0,1.757,-0.33397,0.069431,0.070231,1,0.379,1,0.0125,0
0.017069,0.0036085,0.033981,0.00038,0,0.00014702,-2.5184e-05,1.4992e-19,0,1.7308,-0.33531,0.06837,0.069183,1,0.38,1,0.0125,0
0.016727,0.0036022,0.034498,0.000381,0,0.00014604,-2.5318e-05,1.5289e-19,0,1.7048,-0.33657,0.067315,0.068142,1,0.381,1,0.0125,0
0.016388,0.0035953,0.035022,0.000382,0,0.00014506,-2.5449e-05,1.5204e-19,0,1.679,-0.33775,0.066267,0.067108,1,0.382,1,0.0125,0
0.016053,0.0035879,0.035555,0.000383,0,0.00014409,-2.5574e-05,1.5204e-19,0,1.6533,-0.33885,0.065226,0.066082,1,0.383,1,0.0125,0
0.015722,0.00358,0.036095,0.000384,0,0.00014313,-2.5694e-05,1.5501e-19,0,1.6279,-0.33987,0.064192,0.065063,1,0.384,1,0.0125,0
0.015395,0.0035716,0.036642,0.000385,0,0.00014217,-2.581e-05,1.5416e-19,0,1.6026,-0.34081,0.063167,0.064052,1,0.385,1,0.0125,0
0.015073,0.0035628,0.037198,0.000386,0,0.00014122,-2.592e-05,1.5437e-19,0,1.5775,-0.34166,0.06215,0.063049,1,0.386,1,0.0125,0
0.014755,0.0035535,0.037761,0.000387,0,0.00014028,-2.6026e-05,1.5247e-19,0,1.5527,-0.34244,0.061142,0.062056,1,0.387,1,0.0125,0
0.014441,0.0035438,0.038331,0.000388,0,0.00013934,-2.6126e-05,1.5522e-19,0,1.5281,-0.34313,0.060143,0.061072,1,0.388,1,0.0125,0
0.014132,0.0035338,0.038907,0.000389,0,0.00013842,-2.6222e-05,1.5522e-19,0,1.5038,-0.34374,0.059153,0.060097,1,0.389,1,0.0125,0
0.013827,0.0035234,0.039489,0.00039,0,0.0001375,-2.6313e-05,1.5861e-19,0,1.4797,-0.34427,0.058173,0.059132,1,0.39,1,0.0125,0
0.013527,0.0035126,0.04008,0.000391,0,0.00013659,-2.6398e-05,1.5501e-19,0,1.4558,-0.34471,0.057204,0.058178,1,0.391,1,0.0125,0
0.013232,0.0035017,0.040676,0.000392,0,0.00013569,-2.6479e-05,1.5734e-19,0,1.4322,-0.34508,0.056245,0.057235,1,0.392,1,0.0125,0
0.012942,0.0034904,0.041279,0.000393,0,0.00013481,-2.6554e-05,1.5776e-19,0,1.4089,-0.34536,0.055298,0.056303,1,0.393,1,0.0125,0
0.012657,0.0034789,0.041889,0.000394,0,0.00013393,-2.6625e-05,1.5776e-19,0,1.3859,-0.34557,0.054362,0.055382,1,0.394,1,0.0125,0
0.012377,0.0034672,0.042507,0.000395,0,0.00013306,-2.6691e-05,1.5945e-19,0,1.3632,-0.34569,0.053438,0.054473,1,0.395,1,0.0125,0
0.012102,0.0034554,0.043132,0.000396,0,0.00013221,-2.6751e-05,1.5861e-19,0,1.3408,-0.34574,0.052525,0.053577,1,0.396,1,0.0125,0
0.011832,0.0034433,0.043763,0.000397,0,0.00013136,-2.6808e-05,1.5924e-19,0,1.3187,-0.34572,0.051626,0.052693,1,0.397,1,0.0125,0
0.011568,0.0034312,0.044401,0.000398,0,0.00013053,-2.6859e-05,1.6009e-19,0,1.297,-0.34562,0.05074,0.051822,1,0.398,1,0.0125,0
0.011309,0.0034189,0.045047,0.000399,0,0.00012972,-2.6906e-05,1.5882e-19,0,1.2755,-0.34544,0.049866,0.050965,1,0.399,1,0.0125,0
0.011055,0.0034065,0.045698,0.0004,0,0.00012891,-2.6949e-05,1.6009e-19,0,1.2545,-0.3452,0.049006,0.05012,1,0.4,1,0.0125,0
0.010807,0.003394,0.046356,0.000401,0,0.00012812,-2.6987e-05,1.6157e-19,0,1.2337,-0.34488,0.04816,0.04929,1,0.401,1,0.0125,0
0.010564,0.0033815,0.047021,0.000402,0,0.00012734,-2.702e-05,1.6136e-19,0,1.2133,-0.3445,0.047327,0.048474,1,0.402,1,0.0125,0
0.010327,0.003369,0.047692,0.000403,0,0.00012658,-2.705e-05,1.6051e-19,0,1.1933,-0.34406,0.046509,0.047672,1,0.403,1,0.0125,0
0.010096,0.0033564,0.048369,0.000404,0,0.00012583,-2.7076e-05,1.6136e-19,0,1.1736,-0.34355,0.045706,0.046884,1,0.404,1,0.0125,0
0.0098697,0.0033438,0.049052,0.000405,0,0.00012509,-2.7097e-05,1.6136e-19,0,1.1543,-0.34298,0.044917,0.046111,1,0.405,1,0.0125,0
0.0096492,0.0033313,0.049741,0.000406,0,0.00012437,-2.7115e-05,1.6157e-19,0,1.1353,-0.34235,0.044142,0.045353,1,0.406,1,0.0125,0
0.0094343,0.0033188,0.050435,0.000407,0,0.00012366,-2.7129e-05,1.6051e-19,0,1.1168,-0.34166,0.043383,0.044609,1,0.407,1,0.0125,0
0.009225,0.0033064,0.051136,0.000408,0,0.00012297,-2.714e-05,1.62e-19,0,1.0986,-0.34092,0.042639,0.043881,1,0.408,1,0.0125,0
0.0090212,0.003294,0.051842,0.000409,0,0.0001223,-2.7147e-05,1.6242e-19,0,1.0808,-0.34012,0.04191,0.043169,1,0.409,1,0.0125,0
0.008823,0.0032817,0.052547,0.00041,0,0.00012164,-2.7151e-05,1.6157e-19,0,1.0633,-0.33928,0.041196,0.042471,1,0.41,1,0.0125,0
0.0086302,0.0032694,0.053257,0.000411,0,0.00012099,-2.7152e-05,1.62e-19,0,1.0463,-0.33839,0.040497,0.041789,1,0.411,1,0.0125,0
0.0084428,0.0032573,0.053973,0.000412,0,0.00012036,-2.715e-05,1.6284e-19,0,1.0296,-0.33746,0.039814,0.041121,1,0.412,1,0.0125,0
0.0082609,0.0032452,0.054693,0.000413,0,0.00011974,-2.7144e-05,1.6094e-19,0,1.0133,-0.33648,0.039146,0.040469,1,0.413,1,0.0125,0
0.0080844,0.0032332,0.055419,0.000414,0,0.00011915,-2.7136e-05,1.6178e-19,0,0.99743,-0.33546,0.038493,0.039833,1,0.414,1,0.0125,0
0.0079133,0.0032213,0.05615,0.000415,0,0.00011856,-2.7126e-05,1.6115e-19,0,0.98191,-0.33439,0.037856,0.039212,1,0.415,1,0.0125,0
0.0077475,0.0032095,0.056885,0.000416,0,0.000118,-2.7113e-05,1.6157e-19,0,0.96678,-0.3333,0.037233,0.038606,1,0.416,1,0.0125,0
0.0075868,0.0031979,0.057626,0.000417,0,0.00011744,-2.7097e-05,1.62e-19,0,0.95202,-0.33216,0.036626,0.038015,1,0.417,1,0.0125,0
0.0074314,0.0031864,0.058371,0.000418,0,0.00011691,-2.708e-05,1.6136e-19,0,0.93764,-0.331,0.036035,0.03744,1,0.418,1,0.0125,0
0.0072811,0.003175,0.059121,0.000419,0,0.00011639,-2.706e-05,1.6094e-19,0,0.92364,-0.3298,0.035458,0.036879,1,0.419,1,0.0125,0
0.0071358,0.0031638,0.059876,0.00042,0,0.00011588,-2.7038e-05,1.6136e-19,0,0.91,-0.32857,0.034896,0.036333,1,0.42,1,0.0125,0
0.0069955,0.0031527,0.060635,0.000421,0,0.00011539,-2.7014e-05,1.6157e-19,0,0.89674,-0.32731,0.034348,0.035802,1,0.421,1,0.0125,0
0.0068599,0.0031418,0.061399,0.000422,0,0.00011491,-2.6988e-05,1.6051e-19,0,0.88383,-0.32603,0.033815,0.035285,1,0.422,1,0.0125,0
0.0067292,0.003131,0.062168,0.000423,0,0.00011445,-2.6961e-05,1.5924e-19,0,0.87128,-0.32472,0.033296,0.034783,1,0.423,1,0.0125,0
0.0066031,0.0031204,0.062941,0.000424,0,0.00011401,-2.6932e-05,1.6136e-19,0,0.85908,-0.32339,0.032791,0.034294,1,0.424,1,0.0125,0
0.0064815,0.0031099,0.063719,0.000425,0,0.00011357,-2.6901e-05,1.5967e-19,0,0.84722,-0.32204,0.032301,0.033819,1,0.425,1,0.0125,0
0.0063645,0.0030996,0.064502,0.000426,0,0.00011316,-2.687e-05,1.5945e-19,0,0.83571,-0.32067,0.031823,0.033358,1,0.426,1,0.0125,0
0.0062517,0.0030895,0.065289,0.000427,0,0.00011275,-2.6836e-05,1.6147e-19,0,0.82452,-0.31928,0.031359,0.03291,1,0.427,1,0.0125,0
0.0061433,0.0030795,0.066081,0.000428,0,0.00011236,-2.6802e-05,1.584e-19,0,0.81367,-0.31788,0.030908,0.032476,1,0.428,1,0.0125,0
0.006039,0.0030697,0.066878,0.000429,0,0.00011198,-2.6766e-05,1.5967e-19,0,0.80314,-0.31646,0.03047,0.032054,1,0.429,1,0.0125,0
0.0059387,0.00306,0.067679,0.00043,0,0.00011162,-2.673e-05,1.585e-19,0,0.79291,-0.31503,0.030045,0.031644,1,0.43,1,0.0125,0
0.0058424,0.0030504,0.068486,0.000431,0,0.00011127,-2.6693e-05,1.5903e-19,0,0.78299,-0.31358,0.029631,0.031247,1,0.431,1,0.0125,0
0.0057499,0.003041,0.069297,0.000432,0,0.00011093,-2.6654e-05,1.5861e-19,0,0.77338,-0.31213,0.02923,0.030862,1,0.432,1,0.0125,0
0.0056609,0.0030318,0.070113,0.000433,0,0.00011061,-2.6615e-05,1.5808e-19,0,0.76404,-0.31066,0.02884,0.030488,1,0.433,1,0.0125,0
0.0055757,0.0030227,0.070934,0.000434,0,0.00011029,-2.6576e-05,1.5776e-19,0,0.755,-0.30919,0.028462,0.030126,1,0.434,1,0.0125,0
0.0054939,0.0030137,0.07176,0.000435,0,0.00010999,-2.6535e-05,1.5988e-19,0,0.74622,-0.30771,0.028094,0.029774,1,0.435,1,0.0125,0
0.0054155,0.0030049,0.072591,0.000436,0,0.0001097,-2.6494e-05,1.5818e-19,0,0.73772,-0.30622,0.027738,0.029433,1,0.436,1,0.0125,0
0.0053403,0.0029962,0.073428,0.000437,0,0.00010942,-2.6453e-05,1.5712e-19,0,0.72948,-0.30472,0.027392,0.029103,1,0.437,1,0.0125,0
0.0052683,0.0029876,0.074264,0.000438,0,0.00010915,-2.6411e-05,1.5734e-19,0,0.72149,-0.30323,0.027056,0.028783,1,0.438,1,0.0125,0
0.0051991,0.0029792,0.075105,0.000439,0,0.00010889,-2.6369e-05,1.5712e-19,0,0.71373,-0.30173,0.026729,0.028472,1,0.439,1,0.0125,0
0.0051329,0.0029708,0.075951,0.00044,0,0.00010864,-2.6326e-05,1.5776e-19,0,0.70622,-0.30023,0.026412,0.028171,1,0.44,1,0.0125,0
0.0050695,0.0029626,0.076801,0.000441,0,0.0001084,-2.6284e-05,1.5723e-19,0,0.69893,-0.29873,0.026104,0.027879,1,0.441,1,0.0125,0
0.0050088,0.0029545,0.077658,0.000442,0,0.00010817,-2.6241e-05,1.5882e-19,0,0.69186,-0.29722,0.025805,0.027596,1,0.442,1,0.0125,0
0.0049507,0.0029465,0.078521,0.000443,0,0.00010795,-2.6198e-05,1.567e-19,0,0.68501,-0.29572,0.025515,0.027321,1,0.443,1,0.0125,0
0.004895,0.0029385,0.079389,0.000444,0,0.00010774,-2.6154e-05,1.5543e-19,0,0.67836,-0.29421,0.025232,0.027055,1,0.444,1,0.0125,0
0.0048418,0.0029307,0.080264,0.000445,0,0.00010754,-2.6111e-05,1.5522e-19,0,0.67192,-0.29271,0.024958,0.026796,1,0.445,1,0.0125,0
0.004791,0.002923,0.081144,0.000446,0,0.00010734,-2.6068e-05,1.5511e-19,0,0.66567,-0.29121,0.024692,0.026546,1,0.446,1,0.0125,0
0.0047423,0.0029153,0.082031,0.000447,0,0.00010716,-2.6024e-05,1.5564e-19,0,0.6596,-0.2897,0.024433,0.026302,1,0.447,1,0.0125,0
0.0046958,0.0029078,0.082925,0.000448,0,0.00010698,-2.5981e-05,1.5543e-19,0,0.65372,-0.2882,0.024182,0.026067,1,0.448,1,0.0125,0
0.0046513,0.0029003,0.083825,0.000449,0,0.00010681,-2.5937e-05,1.5448e-19,0,0.64801,-0.2867,0.023937,0.025838,1,0.449,1,0.0125,0
0.0046088,0.0028929,0.084729,0.00045,0,0.00010664,-2.5894e-05,1.5331e-19,0,0.64246,-0.28521,0.023699,0.025615,1,0.45,1,0.0125,0
0.0045681,0.0028856,0.08564,0.000451,0,0.00010648,-2.5851e-05,1.5225e-19,0,0.63708,-0.28372,0.023468,0.025399,1,0.451,1,0.0125,0
0.0045293,0.0028783,0.086558,0.000452,0,0.00010633,-2.5808e-05,1.531e-19,0,0.63185,-0.28223,0.023242,0.02519,1,0.452,1,0.0125,0
0.0044922,0.0028712,0.087483,0.000453,0,0.00010619,-2.5764e-05,1.5289e-19,0,0.62677,-0.28074,0.023023,0.024986,1,0.453,1,0.0125,0
0.0044568,0.0028641,0.088415,0.000454,0,0.00010605,-2.5721e-05,1.5162e-19,0,0.62183,-0.27926,0.02281,0.024788,1,0.454,1,0.0125,0
0.0044229,0.002857,0.089355,0.000455,0,0.00010592,-2.5679e-05,1.5532e-19,0,0.61703,-0.27778,0.022601,0.024595,1,0.455,1,0.0125,0
0.0043906,0.00285,0.090302,0.000456,0,0.00010579,-2.5636e-05,1.531e-19,0,0.61237,-0.2763,0.022399,0.024408,1,0.456,1,0.0125,0
0.0043597,0.002843,0.091257,0.000457,0,0.00010567,-2.5593e-05,1.5427e-19,0,0.60783,-0.27483,0.022201,0.024226,1,0.457,1,0.0125,0
0.0043302,0.0028361,0.092219,0.000458,0,0.00010556,-2.5551e-05,1.5247e-19,0,0.60342,-0.27336,0.022009,0.024049,1,0.458,1,0.0125,0
0.0043021,0.0028293,0.09319,0.000459,0,0.00010545,-2.5508e-05,1.531e-19,0,0.59913,-0.27189,0.021821,0.023877,1,0.459,1,0.0125,0
0.0042753,0.0028225,0.094168,0.00046,0,0.00010534,-2.5466e-05,1.5247e-19,0,0.59494,-0.27043,0.021638,0.023709,1,0.46,1,0.0125,0
0.0042498,0.0028157,0.095154,0.000461,0,0.00010524,-2.5424e-05,1.5225e-19,0,0.59088,-0.26897,0.02146,0.023546,1,0.461,1,0.0125,0
0.0042254,0.002809,0.096149,0.000462,0,0.00010515,-2.5383e-05,1.5289e-19,0,0.58692,-0.26752,0.021286,0.023387,1,0.462,1,0.0125,0
0.0042022,0.0028023,0.097152,0.000463,0,0.00010506,-2.5341e-05,1.5183e-19,0,0.58307,-0.26607,0.021116,0.023232,1,0.463,1,0.0125,0
0.0041801,0.0027956,0.098164,0.000464,0,0.00010497,-2.53e-05,1.512e-19,0,0.57932,-0.26462,0.02095,0.023081,1,0.464,1,0.0125,0
0.0041591,0.002789,0.099184,0.000465,0,0.00010489,-2.5258e-05,1.5141e-19,0,0.57566,-0.26318,0.020788,0.022935,1,0.465,1,0.0125,0
0.0041391,0.0027823,0.10021,0.000466,0,0.00010481,-2.5217e-05,1.5204e-19,0,0.5721,-0.26174,0.02063,0.022791,1,0.466,1,0.0125,0
0.0041201,0.0027758,0.10125,0.000467,0,0.00010474,-2.5176e-05,1.512e-19,0,0.56863,-0.26031,0.020475,0.022652,1,0.467,1,0.0125,0
0.0041021,0.0027692,0.1023,0.000468,0,0.00010467,-2.5136e-05,1.5035e-19,0,0.56524,-0.25888,0.020324,0.022516,1,0.468,1,0.0125,0
0.004085,0.0027626,0.10335,0.000469,0,0.0001046,-2.5095e-05,1.4992e-19,0,0.56194,-0.25745,0.020176,0.022384,1,0.469,1,0.0125,0
0.0040688,0.0027561,0.10442,0.00047,0,0.00010454,-2.5055e-05,1.4992e-19,0,0.55873,-0.25603,0.020032,0.022254,1,0.47,1,0.0125,0
0.0040534,0.0027496,0.10549,0.000471,0,0.00010448,-2.5015e-05,1.4992e-19,0,0.55559,-0.25461,0.019891,0.022128,1,0.471,1,0.0125,0
0.0040388,0.0027431,0.10658,0.000472,0,0.00010442,-2.4975e-05,1.4802e-19,0,0.55253,-0.2532,0.019753,0.022006,1,0.472,1,0.0125,0
0.0040251,0.0027366,0.10767,0.000473,0,0.00010437,-2.4935e-05,1.4908e-19,0,0.54955,-0.25179,0.019618,0.021886,1,0.473,1,0.0125,0
0.0040122,0.0027301,0.10877,0.000474,0,0.00010432,-2.4895e-05,1.4992e-19,0,0.54665,-0.25039,0.019487,0.021769,1,0.474,1,0.0125,0
0.004,0.0027236,0.10988,0.000475,0,0.00010428,-2.4856e-05,1.4781e-19,0,0.54381,-0.24898,0.019358,0.021655,1,0.475,1,0.0125,0
0.0039885,0.0027171,0.111,0.000476,0,0.00010424,-2.4817e-05,1.4887e-19,0,0.54104,-0.24759,0.019231,0.021544,1,0.476,1,0.0125,0
0.0039777,0.0027106,0.11213,0.000477,0,0.0001042,-2.4778e-05,1.4738e-19,0,0.53834,-0.24619,0.019108,0.021435,1,0.477,1,0.0125,0
0.0039676,0.0027042,0.11326,0.000478,0,0.00010416,-2.4739e-05,1.4654e-19,0,0.53571,-0.2448,0.018987,0.021329,1,0.478,1,0.0125,0
0.0039582,0.0026977,0.11441,0.000479,0,0.00010413,-2.47e-05,1.4781e-19,0,0.53315,-0.24342,0.018869,0.021226,1,0.479,1,0.0125,0
0.0039495,0.0026912,0.11557,0.00048,0,0.0001041,-2.4662e-05,1.4632e-19,0,0.53065,-0.24204,0.018754,0.021126,1,0.48,1,0.0125,0
0.0039414,0.0026848,0.11674,0.000481,0,0.00010407,-2.4623e-05,1.4643e-19,0,0.52821,-0.24066,0.018641,0.021027,1,0.481,1,0.0125,0
0.0039339,0.0026783,0.11791,0.000482,0,0.00010405,-2.4585e-05,1.4548e-19,0,0.52583,-0.23929,0.01853,0.020932,1,0.482,1,0.0125,0
0.003927,0.0026718,0.1191,0.000483,0,0.00010403,-2.4547e-05,1.4717e-19,0,0.5235,-0.23792,0.018422,0.020838,1,0.483,1,0.0125,0
0.0039207,0.0026653,0.1203,0.000484,0,0.00010401,-2.451e-05,1.4781e-19,0,0.52125,-0.23655,0.018316,0.020747,1,0.484,1,0.0125,0
0.003915,0.0026589,0.12151,0.000485,0,0.00010399,-2.4472e-05,1.4696e-19,0,0.51904,-0.23519,0.018213,0.020658,1,0.485,1,0.0125,0
0.00391,0.0026524,0.12273,0.000486,0,0.00010398,-2.4434e-05,1.458e-19,0,0.5169,-0.23383,0.018111,0.020572,1,0.486,1,0.0125,0
0.0039054,0.0026458,0.12396,0.000487,0,0.00010397,-2.4397e-05,1.4569e-19,0,0.51481,-0.23247,0.018013,0.020488,1,0.487,1,0.0125,0
0.0039015,0.0026393,0.1252,0.000488,0,0.00010396,-2.436e-05,1.4675e-19,0,0.51278,-0.23112,0.017916,0.020406,1,0.488,1,0.0125,0
0.003898,0.0026328,0.12645,0.000489,0,0.00010396,-2.4323e-05,1.4304e-19,0,0.5108,-0.22977,0.017822,0.020326,1,0.489,1,0.0125,0
0.0038951,0.0026262,0.12771,0.00049,0,0.00010395,-2.4286e-05,1.4452e-19,0,0.50887,-0.22842,0.017729,0.020249,1,0.49,1,0.0125,0
0.0038927,0.0026197,0.12899,0.000491,0,0.00010395,-2.4249e-05,1.4569e-19,0,0.507,-0.22708,0.017639,0.020173,1,0.491,1,0.0125,0
0.0038908,0.0026131,0.13027,0.000492,0,0.00010396,-2.4213e-05,1.459e-19,0,0.50517,-0.22574,0.017551,0.0201,1,0.492,1,0.0125,0
0.0038895,0.0026066,0.13155,0.000493,0,0.00010396,-2.4176e-05,1.4527e-19,0,0.50341,-0.22441,0.017465,0.020029,1,0.493,1,0.0125,0
0.0038883,0.0026,0.13285,0.000494,0,0.00010397,-2.414e-05,1.4357e-19,0,0.50167,-0.22308,0.01738,0.019958,1,0.494,1,0.0125,0
0.0038878,0.0025934,0.13415,0.000495,0,0.00010398,-2.4104e-05,1.4357e-19,0,0.49999,-0.22175,0.017298,0.019891,1,0.495,1,0.0125,0
0.0014171,0.0025864,0.13574,0.000496,0,9.4e-05,-2.4062e-05,1.422e-19,0,0.29868,-0.22027,0.0092308,0.01184,1,0.496,1,0.0125,0
0.0013773,0.0025789,0.13714,0.000497,0,9.3811e-05,-2.4023e-05,1.4325e-19,0,0.29365,-0.21889,0.0090143,0.011638,1,0.497,1,0.0125,0
0.0013472,0.0025712,0.13854,0.000498,0,9.366e-05,-2.3985e-05,1.44e-19,0,0.28941,-0.21752,0.008829,0.011468,1,0.498,1,0.0125,0
0.0013198,0.0025636,0.13994,0.000499,0,9.3519e-05,-2.3946e-05,1.4294e-19,0,0.28539,-0.21616,0.0086526,0.011306,1,0.499,1,0.0125,0
0.0012946,0.002556,0.14133,0.0005,0,9.3386e-05,-2.3908e-05,1.4389e-19,0,0.28155,-0.2148,0.0084837,0.011152,1,0.5,1,0.0125,0
0.0012712,0.0025483,0.14273,0.000501,0,9.326e-05,-2.3869e-05,1.4241e-19,0,0.27787,-0.21344,0.008321,0.011005,1,0.501,1,0.0125,0
0.0012495,0.0025405,0.14414,0.000502,0,9.3141e-05,-2.3831e-05,1.4273e-19,0,0.27433,-0.21209,0.0081637,0.010862,1,0.502,1,0.0125,0
0.001229,0.0025328,0.14555,0.000503,0,9.3026e-05,-2.3792e-05,1.4188e-19,0,0.2709,-0.21074,0.008011,0.010725,1,0.503,1,0.0125,0
0.0012097,0.002525,0.14696,0.000504,0,9.2915e-05,-2.3754e-05,1.4018e-19,0,0.26757,-0.20939,0.0078622,0.010591,1,0.504,1,0.0125,0
0.0011914,0.0025172,0.14839,0.000505,0,9.2809e-05,-2.3715e-05,1.404e-19,0,0.26432,-0.20805,0.0077169,0.01046,1,0.505,1,0.0125,0
0.0011739,0.0025094,0.14981,0.000506,0,9.2705e-05,-2.3677e-05,1.4082e-19,0,0.26115,-0.20671,0.0075747,0.010333,1,0.506,1,0.0125,0
0.001157,0.0025016,0.15124,0.000507,0,9.2604e-05,-2.3639e-05,1.3955e-19,0,0.25805,-0.20538,0.007435,0.010208,1,0.507,1,0.0125,0
0.0011408,0.0024937,0.15267,0.000508,0,9.2505e-05,-2.3601e-05,1.405e-19,0,0.255,-0.20405,0.0072977,0.010086,1,0.508,1,0.0125,0
0.0011251,0.0024859,0.1541,0.000509,0,9.2408e-05,-2.3563e-05,1.3934e-19,0,0.25201,-0.20273,0.0071626,0.0099658,1,0.509,1,0.0125,0
0.0011099,0.002478,0.15554,0.00051,0,9.2313e-05,-2.3525e-05,1.4124e-19,0,0.24907,-0.20141,0.0070292,0.0098475,1,0.51,1,0.0125,0
0.0010952,0.0024701,0.15699,0.000511,0,9.222e-05,-2.3487e-05,1.4103e-19,0,0.24617,-0.2001,0.0068977,0.009731,1,0.511,1,0.0125,0
0.0010808,0.0024621,0.15844,0.000512,0,9.2129e-05,-2.3449e-05,1.3976e-19,0,0.24332,-0.19879,0.0067679,0.0096163,1,0.512,1,0.0125,0
0.0010668,0.0024542,0.15989,0.000513,0,9.2038e-05,-2.3411e-05,1.3913e-19,0,0.2405,-0.19748,0.0066397,0.0095032,1,0.513,1,0.0125,0
0.0010532,0.0024463,0.16135,0.000514,0,9.1949e-05,-2.3374e-05,1.387e-19,0,0.23773,-0.19618,0.0065129,0.0093915,1,0.514,1,0.0125,0
0.0010399,0.0024383,0.16281,0.000515,0,9.1862e-05,-2.3336e-05,1.4124e-19,0,0.23499,-0.19488,0.0063876,0.0092813,1,0.515,1,0.0125,0
0.0010269,0.0024303,0.16427,0.000516,0,9.1775e-05,-2.3299e-05,1.405e-19,0,0.23228,-0.19359,0.0062635,0.0091724,1,0.516,1,0.0125,0
0.0010142,0.0024223,0.16574,0.000517,0,9.1689e-05,-2.3261e-05,1.3849e-19,0,0.2296,-0.1923,0.0061407,0.0090649,1,0.517,1,0.0125,0
0.0010017,0.0024143,0.16723,0.000518,0,9.1605e-05,-2.3224e-05,1.368e-19,0,0.22696,-0.19102,0.0060192,0.0089586,1,0.518,1,0.0125,0
0.00098963,0.0024063,0.16872,0.000519,0,9.1522e-05,-2.3186e-05,1.3807e-19,0,0.22435,-0.18973,0.005899,0.0088537,1,0.519,1,0.0125,0
0.0009778,0.0023982,0.17021,0.00052,0,9.1439e-05,-2.3149e-05,1.3563e-19,0,0.22178,-0.18845,0.0057801,0.00875,1,0.52,1,0.0125,0
0.00096622,0.0023901,0.17171,0.000521,0,9.1358e-05,-2.3112e-05,1.3658e-19,0,0.21923,-0.18718,0.0056622,0.0086476,1,0.521,1,0.0125,0
0.00095487,0.002382,0.17321,0.000522,0,9.1278e-05,-2.3074e-05,1.3743e-19,0,0.21671,-0.18591,0.0055454,0.0085462,1,0.522,1,0.0125,0
0.00094381,0.0023739,0.17473,0.000523,0,9.1198e-05,-2.3037e-05,1.3711e-19,0,0.21422,-0.18464,0.0054298,0.0084461,1,0.523,1,0.0125,0
0.00093299,0.0023658,0.17625,0.000524,0,9.112e-05,-2.3e-05,1.368e-19,0,0.21177,-0.18337,0.0053153,0.0083472,1,0.524,1,0.0125,0
0.00092239,0.0023576,0.17777,0.000525,0,9.1042e-05,-2.2963e-05,1.368e-19,0,0.20933,-0.18211,0.0052018,0.0082493,1,0.525,1,0.0125,0
0.00091198,0.0023495,0.17929,0.000526,0,9.0965e-05,-2.2925e-05,1.3616e-19,0,0.20693,-0.18085,0.0050893,0.0081524,1,0.526,1,0.0125,0
0.00090175,0.0023413,0.1808,0.000527,0,9.0889e-05,-2.2888e-05,1.3658e-19,0,0.20455,-0.1796,0.0049776,0.0080566,1,0.527,1,0.0125,0
0.00089169,0.0023332,0.18231,0.000528,0,9.0813e-05,-2.2851e-05,1.3595e-19,0,0.20219,-0.17835,0.0048668,0.0079616,1,0.528,1,0.0125,0
0.00088186,0.002325,0.18384,0.000529,0,9.0738e-05,-2.2814e-05,1.3595e-19,0,0.19985,-0.17711,0.0047569,0.0078676,1,0.529,1,0.0125,0
0.00087226,0.0023169,0.18536,0.00053,0,9.0664e-05,-2.2777e-05,1.3627e-19,0,0.19755,-0.17587,0.0046481,0.0077748,1,0.53,1,0.0125,0
0.00086286,0.0023087,0.18689,0.000531,0,9.0591e-05,-2.274e-05,1.3658e-19,0,0.19527,-0.17463,0.0045401,0.0076829,1,0.531,1,0.0125,0
0.00085376,0.0023005,0.18842,0.000532,0,9.0519e-05,-2.2703e-05,1.3616e-19,0,0.19302,-0.1734,0.0044333,0.0075924,1,0.532,1,0.0125,0
0.00084494,0.0022923,0.18996,0.000533,0,9.0448e-05,-2.2666e-05,1.3531e-19,0,0.1908,-0.17217,0.0043276,0.0075031,1,0.533,1,0.0125,0
0.00083654,0.0022841,0.1915,0.000534,0,9.0378e-05,-2.2629e-05,1.3489e-19,0,0.18863,-0.17094,0.0042234,0.0074155,1,0.534,1,0.0125,0
0.00082867,0.0022758,0.19305,0.000535,0,9.0311e-05,-2.2592e-05,1.3478e-19,0,0.1865,-0.16972,0.0041211,0.0073298,1,0.535,1,0.0125,0
0.0008215,0.0022675,0.19461,0.000536,0,9.0247e-05,-2.2555e-05,1.3404e-19,0,0.18444,-0.1685,0.0040213,0.0072468,1,0.536,1,0.0125,0
0.00081523,0.0022591,0.19619,0.000537,0,9.0187e-05,-2.2518e-05,1.3489e-19,0,0.18247,-0.16728,0.0039245,0.0071671,1,0.537,1,0.0125,0
0.00081014,0.0022506,0.19779,0.000538,0,9.0133e-05,-2.2481e-05,1.3425e-19,0,0.18059,-0.16606,0.0038317,0.0070915,1,0.538,1,0.0125,0
0.00080649,0.0022421,0.1994,0.000539,0,9.0084e-05,-2.2445e-05,1.3404e-19,0,0.17884,-0.16484,0.0037437,0.0070209,1,0.539,1,0.0125,0
0.00080443,0.0022335,0.20103,0.00054,0,9.0043e-05,-2.2408e-05,1.3404e-19,0,0.17724,-0.16363,0.0036611,0.0069559,1,0.54,1,0.0125,0
0.00080409,0.0022248,0.20269,0.000541,0,9.001e-05,-2.2372e-05,1.3351e-19,0,0.17578,-0.16241,0.0035844,0.006897,1,0.541,1,0.0125,0
0.00080552,0.002216,0.20437,0.000542,0,8.9986e-05,-2.2337e-05,1.35e-19,0,0.17448,-0.1612,0.0035137,0.0068442,1,0.542,1,0.0125,0
0.00080866,0.0022071,0.20608,0.000543,0,8.997e-05,-2.2301e-05,1.3267e-19,0,0.17333,-0.16,0.003449,0.0067976,1,0.543,1,0.0125,0
0.00081338,0.0021982,0.2078,0.000544,0,8.9961e-05,-2.2266e-05,1.3245e-19,0,0.17233,-0.1588,0.0033898,0.0067567,1,0.544,1,0.0125,0
0.00081955,0.0021892,0.20954,0.000545,0,8.996e-05,-2.2232e-05,1.3298e-19,0,0.17146,-0.15761,0.0033359,0.0067212,1,0.545,1,0.0125,0
0.00082701,0.0021801,0.21129,0.000546,0,8.9965e-05,-2.2198e-05,1.3288e-19,0,0.17071,-0.15642,0.0032869,0.0066905,1,0.546,1,0.0125,0
0.00083559,0.002171,0.21305,0.000547,0,8.9976e-05,-2.2164e-05,1.3193e-19,0,0.17007,-0.15524,0.0032422,0.0066642,1,0.547,1,0.0125,0
0.0008451,0.0021619,0.21481,0.000548,0,8.9993e-05,-2.213e-05,1.3256e-19,0,0.16953,-0.15407,0.0032013,0.0066417,1,0.548,1,0.0125,0
0.00085542,0.0021528,0.21659,0.000549,0,9.0014e-05,-2.2098e-05,1.3171e-19,0,0.16907,-0.15291,0.0031638,0.0066226,1,0.549,1,0.0125,0
0.00086643,0.0021436,0.21839,0.00055,0,9.0039e-05,-2.2065e-05,1.315e-19,0,0.16868,-0.15175,0.0031293,0.0066065,1,0.55,1,0.0125,0
0.000878,0.0021344,0.22019,0.000551,0,9.0068e-05,-2.2033e-05,1.3193e-19,0,0.16836,-0.1506,0.0030975,0.0065928,1,0.551,1,0.0125,0
0.00089003,0.0021252,0.222,0.000552,0,9.01e-05,-2.2002e-05,1.3013e-19,0,0.16809,-0.14946,0.003068,0.0065814,1,0.552,1,0.0125,0
0.00090245,0.0021159,0.22383,0.000553,0,9.0135e-05,-2.197e-05,1.3097e-19,0,0.16787,-0.14833,0.0030405,0.006572,1,0.553,1,0.0125,0
0.00091519,0.0021066,0.22567,0.000554,0,9.0173e-05,-2.1939e-05,1.2991e-19,0,0.1677,-0.1472,0.0030149,0.0065644,1,0.554,1,0.0125,0
0.00092822,0.0020973,0.22753,0.000555,0,9.0213e-05,-2.1909e-05,1.3182e-19,0,0.16757,-0.14608,0.0029911,0.0065583,1,0.555,1,0.0125,0
0.0009415,0.002088,0.22939,0.000556,0,9.0255e-05,-2.1879e-05,1.2981e-19,0,0.16747,-0.14496,0.002969,0.0065538,1,0.556,1,0.0125,0
0.00095499,0.0020787,0.23127,0.000557,0,9.03e-05,-2.1849e-05,1.3013e-19,0,0.16741,-0.14386,0.0029484,0.0065507,1,0.557,1,0.0125,0
0.00096866,0.0020694,0.23314,0.000558,0,9.0346e-05,-2.182e-05,1.3002e-19,0,0.16738,-0.14276,0.0029291,0.0065488,1,0.558,1,0.0125,0
0.00098249,0.0020601,0.23502,0.000559,0,9.0394e-05,-2.1791e-05,1.3065e-19,0,0.16738,-0.14167,0.0029113,0.0065482,1,0.559,1,0.0125,0
0.00099649,0.0020507,0.23692,0.00056,0,9.0444e-05,-2.1762e-05,1.2896e-19,0,0.16741,-0.14058,0.0028947,0.0065487,1,0.56,1,0.0125,0
0.0010108,0.0020414,0.23884,0.000561,0,9.0497e-05,-2.1733e-05,1.2917e-19,0,0.16748,-0.1395,0.0028798,0.0065508,1,0.561,1,0.0125,0
0.0010253,0.002032,0.24077,0.000562,0,9.0552e-05,-2.1705e-05,1.3076e-19,0,0.16759,-0.13842,0.0028666,0.0065544,1,0.562,1,0.0125,0
0.0010402,0.0020225,0.24273,0.000563,0,9.061e-05,-2.1677e-05,1.2938e-19,0,0.16773,-0.13735,0.002855,0.0065595,1,0.563,1,0.0125,0
0.0010553,0.0020131,0.2447,0.000564,0,9.0671e-05,-2.165e-05,1.2833e-19,0,0.16792,-0.13629,0.0028451,0.0065662,1,0.564,1,0.0125,0
0.0010708,0.0020035,0.24669,0.000565,0,9.0734e-05,-2.1622e-05,1.2928e-19,0,0.16814,-0.13522,0.002837,0.0065746,1,0.565,1,0.0125,0
0.0010866,0.001994,0.2487,0.000566,0,9.08e-05,-2.1595e-05,1.2875e-19,0,0.16841,-0.13416,0.0028307,0.0065845,1,0.566,1,0.0125,0
0.0011027,0.0019844,0.25073,0.000567,0,9.0869e-05,-2.1568e-05,1.2822e-19,0,0.16872,-0.13311,0.0028261,0.0065961,1,0.567,1,0.0125,0
0.0011191,0.0019748,0.25277,0.000568,0,9.0941e-05,-2.1542e-05,1.2885e-19,0,0.16906,-0.13206,0.0028232,0.0066093,1,0.568,1,0.0125,0
0.0011358,0.0019652,0.25483,0.000569,0,9.1015e-05,-2.1516e-05,1.3002e-19,0,0.16945,-0.13102,0.0028221,0.0066242,1,0.569,1,0.0125,0
0.0011528,0.0019556,0.2569,0.00057,0,9.1093e-05,-2.149e-05,1.2896e-19,0,0.16987,-0.12998,0.0028227,0.0066406,1,0.57,1,0.0125,0
0.0011701,0.0019459,0.25899,0.000571,0,9.1173e-05,-2.1464e-05,1.296e-19,0,0.17034,-0.12894,0.002825,0.0066585,1,0.571,1,0.0125,0
0.0011877,0.0019363,0.26109,0.000572,0,9.1256e-05,-2.1439e-05,1.2748e-19,0,0.17084,-0.12791,0.002829,0.006678,1,0.572,1,0.0125,0
0.0012056,0.0019266,0.26319,0.000573,0,9.1341e-05,-2.1414e-05,1.296e-19,0,0.17138,-0.12689,0.0028346,0.0066989,1,0.573,1,0.0125,0
0.0012236,0.001917,0.2653,0.000574,0,9.1429e-05,-2.1389e-05,1.2758e-19,0,0.17195,-0.12588,0.0028416,0.006721,1,0.574,1,0.0125,0
0.0012418,0.0019074,0.2674,0.000575,0,9.1518e-05,-2.1364e-05,1.2748e-19,0,0.17255,-0.12487,0.0028499,0.0067444,1,0.575,1,0.0125,0
0.0012601,0.0018979,0.2695,0.000576,0,9.161e-05,-2.134e-05,1.2748e-19,0,0.17317,-0.12387,0.0028594,0.0067687,1,0.576,1,0.0125,0
0.0012785,0.0018883,0.2716,0.000577,0,9.1704e-05,-2.1316e-05,1.2705e-19,0,0.17382,-0.12288,0.0028702,0.0067942,1,0.577,1,0.0125,0
0.0012971,0.0018788,0.2737,0.000578,0,9.18e-05,-2.1292e-05,1.2811e-19,0,0.1745,-0.1219,0.0028824,0.0068207,1,0.578,1,0.0125,0
0.0013159,0.0018693,0.27581,0.000579,0,9.1898e-05,-2.1268e-05,1.2663e-19,0,0.17521,-0.12092,0.0028956,0.0068483,1,0.579,1,0.0125,0
0.0013348,0.0018599,0.27791,0.00058,0,9.1998e-05,-2.1245e-05,1.2547e-19,0,0.17594,-0.11995,0.0029103,0.0068771,1,0.58,1,0.0125,0
0.0013538,0.0018504,0.28002,0.000581,0,9.21e-05,-2.1221e-05,1.2547e-19,0,0.1767,-0.11898,0.002926,0.0069068,1,0.581,1,0.0125,0
0.001373,0.001841,0.28214,0.000582,0,9.2205e-05,-2.1198e-05,1.2716e-19,0,0.17748,-0.11803,0.0029431,0.0069377,1,0.582,1,0.0125,0
0.0013923,0.0018316,0.28426,0.000583,0,9.2312e-05,-2.1176e-05,1.2578e-19,0,0.1783,-0.11707,0.0029616,0.0069698,1,0.583,1,0.0125,0
0.0014119,0.0018222,0.28639,0.000584,0,9.2421e-05,-2.1153e-05,1.2568e-19,0,0.17914,-0.11613,0.0029814,0.007003,1,0.584,1,0.0125,0
0.0014316,0.0018128,0.28852,0.000585,0,9.2533e-05,-2.1131e-05,1.2684e-19,0,0.18002,-0.11519,0.0030025,0.0070374,1,0.585,1,0.0125,0
0.0014515,0.0018034,0.29066,0.000586,0,9.2648e-05,-2.1109e-05,1.2663e-19,0,0.18092,-0.11425,0.003025,0.007073,1,0.586,1,0.0125,0
0.0014716,0.001794,0.29281,0.000587,0,9.2765e-05,-2.1087e-05,1.2631e-19,0,0.18185,-0.11332,0.0030488,0.0071098,1,0.587,1,0.0125,0
0.0014919,0.0017847,0.29497,0.000588,0,9.2884e-05,-2.1066e-05,1.2578e-19,0,0.18281,-0.1124,0.003074,0.0071477,1,0.588,1,0.0125,0
0.0015124,0.0017753,0.29713,0.000589,0,9.3006e-05,-2.1044e-05,1.2557e-19,0,0.1838,-0.11148,0.0031006,0.0071868,1,0.589,1,0.0125,0
0.001533,0.001766,0.2993,0.00059,0,9.3131e-05,-2.1023e-05,1.2663e-19,0,0.18482,-0.11057,0.0031285,0.007227,1,0.59,1,0.0125,0
0.0015539,0.0017566,0.30149,0.000591,0,9.3259e-05,-2.1002e-05,1.2483e-19,0,0.18587,-0.10966,0.0031577,0.0072684,1,0.591,1,0.0125,0
0.0015749,0.0017473,0.30368,0.000592,0,9.3389e-05,-2.0982e-05,1.26e-19,0,0.18695,-0.10876,0.0031884,0.007311,1,0.592,1,0.0125,0
0.0015961,0.0017379,0.30588,0.000593,0,9.3522e-05,-2.0961e-05,1.2473e-19,0,0.18805,-0.10786,0.0032204,0.0073548,1,0.593,1,0.0125,0
0.0016175,0.0017286,0.30809,0.000594,0,9.3658e-05,-2.0941e-05,1.2578e-19,0,0.18919,-0.10697,0.0032538,0.0073998,1,0.594,1,0.0125,0
0.0016391,0.0017193,0.31031,0.000595,0,9.3797e-05,-2.0921e-05,1.2515e-19,0,0.19035,-0.10608,0.0032886,0.0074459,1,0.595,1,0.0125,0
0.0016609,0.0017099,0.31255,0.000596,0,9.3939e-05,-2.0901e-05,1.2525e-19,0,0.19155,-0.1052,0.0033248,0.0074932,1,0.596,1,0.0125,0
0.0016829,0.0017006,0.31479,0.000597,0,9.4083e-05,-2.0881e-05,1.2473e-19,0,0.19277,-0.10432,0.0033623,0.0075418,1,0.597,1,0.0125,0
0.001705,0.0016913,0.31704,0.000598,0,9.4231e-05,-2.0862e-05,1.2367e-19,0,0.19403,-0.10344,0.0034013,0.0075915,1,0.598,1,0.0125,0
0.0017274,0.001682,0.31931,0.000599,0,9.4382e-05,-2.0842e-05,1.2494e-19,0,0.19531,-0.10257,0.0034417,0.0076424,1,0.599,1,0.0125,0
0.0017499,0.0016727,0.32158,0.0006,0,9.4536e-05,-2.0823e-05,1.2483e-19,0,0.19662,-0.10171,0.0034835,0.0076944,1,0.6,1,0.0125,0
0.0017727,0.0016633,0.32387,0.000601,0,9.4693e-05,-2.0804e-05,1.2473e-19,0,0.19796,-0.10085,0.0035267,0.0077477,1,0.601,1,0.0125,0
0.0017956,0.001654,0.32617,0.000602,0,9.4853e-05,-2.0786e-05,1.243e-19,0,0.19933,-0.099989,0.0035713,0.0078021,1,0.602,1,0.0125,0
0.0018187,0.0016447,0.32849,0.000603,0,9.5016e-05,-2.0767e-05,1.2494e-19,0,0.20073,-0.099137,0.0036174,0.0078577,1,0.603,1,0.0125,0
0.0018421,0.0016354,0.33081,0.000604,0,9.5183e-05,-2.0749e-05,1.243e-19,0,0.20217,-0.098289,0.0036648,0.0079146,1,0.604,1,0.0125,0
0.0018656,0.0016261,0.33315,0.000605,0,9.5353e-05,-2.0731e-05,1.2144e-19,0,0.20363,-0.097446,0.0037138,0.0079726,1,0.605,1,0.0125,0
0.0018893,0.0016168,0.3355,0.000606,0,9.5526e-05,-2.0713e-05,1.2346e-19,0,0.20512,-0.096606,0.0037642,0.0080319,1,0.606,1,0.0125,0
0.0019133,0.0016075,0.33786,0.000607,0,9.5703e-05,-2.0695e-05,1.2324e-19,0,0.20664,-0.095771,0.003816,0.0080924,1,0.607,1,0.0125,0
0.0019374,0.0015982,0.34024,0.000608,0,9.5884e-05,-2.0678e-05,1.2324e-19,0,0.20819,-0.094939,0.0038693,0.0081541,1,0.608,1,0.0125,0
0.0019617,0.0015889,0.34263,0.000609,0,9.6068e-05,-2.066e-05,1.2261e-19,0,0.20977,-0.094112,0.0039241,0.0082171,1,0.609,1,0.0125,0
0.0019863,0.0015796,0.34503,0.00061,0,9.6256e-05,-2.0643e-05,1.224e-19,0,0.21139,-0.093289,0.0039803,0.0082813,1,0.61,1,0.0125,0
0.002011,0.0015702,0.34745,0.000611,0,9.6447e-05,-2.0626e-05,1.2473e-19,0,0.21303,-0.092469,0.004038,0.0083467,1,0.611,1,0.0125,0
0.002036,0.0015609,0.34988,0.000612,0,9.6643e-05,-2.061e-05,1.2261e-19,0,0.2147,-0.091654,0.0040972,0.0084134,1,0.612,1,0.0125,0
0.0020611,0.0015516,0.35232,0.000613,0,9.6842e-05,-2.0593e-05,1.2218e-19,0,0.21641,-0.090842,0.0041579,0.0084813,1,0.613,1,0.0125,0
0.0020864,0.0015423,0.35478,0.000614,0,9.7045e-05,-2.0577e-05,1.2335e-19,0,0.21815,-0.090035,0.00422,0.0085504,1,0.614,1,0.0125,0
0.002112,0.001533,0.35725,0.000615,0,9.7252e-05,-2.056e-05,1.2282e-19,0,0.21991,-0.089231,0.0042837,0.0086208,1,0.615,1,0.0125,0
0.0021377,0.0015237,0.35973,0.000616,0,9.7463e-05,-2.0544e-05,1.224e-19,0,0.22171,-0.088432,0.0043488,0.0086924,1,0.616,1,0.0125,0
0.0021636,0.0015144,0.36223,0.000617,0,9.7678e-05,-2.0529e-05,1.2176e-19,0,0.22353,-0.087637,0.0044153,0.0087651,1,0.617,1,0.0125,0
0.0021898,0.0015051,0.36474,0.000618,0,9.7897e-05,-2.0513e-05,1.2176e-19,0,0.22539,-0.086846,0.0044833,0.0088391,1,0.618,1,0.0125,0
0.0022161,0.0014958,0.36726,0.000619,0,9.8121e-05,-2.0498e-05,1.2282e-19,0,0.22728,-0.086058,0.0045528,0.0089143,1,0.619,1,0.0125,0
0.0022426,0.0014865,0.3698,0.00062,0,9.8348e-05,-2.0482e-05,1.207e-19,0,0.22919,-0.085275,0.0046239,0.0089907,1,0.62,1,0.0125,0
0.0022693,0.0014772,0.37235,0.000621,0,9.858e-05,-2.0467e-05,1.2176e-19,0,0.23114,-0.084495,0.0046963,0.0090684,1,0.621,1,0.0125,0
0.0022961,0.0014679,0.37492,0.000622,0,9.8817e-05,-2.0453e-05,1.2176e-19,0,0.23312,-0.08372,0.0047703,0.0091472,1,0.622,1,0.0125,0
0.0023232,0.0014586,0.37749,0.000623,0,9.9057e-05,-2.0438e-05,1.2261e-19,0,0.23513,-0.082948,0.0048457,0.0092274,1,0.623,1,0.0125,0
0.0023505,0.0014493,0.38009,0.000624,0,9.9303e-05,-2.0423e-05,1.2091e-19,0,0.23716,-0.08218,0.0049226,0.0093087,1,0.624,1,0.0125,0
0.000882,0.0014401,0.38309,0.000625,0,9.0465e-05,-2.041e-05,1.2155e-19,0,0.10953,-0.081348,-0.00018876,0.0042044,1,0.625,1,0.0125,0
0.0022872,0.0014305,0.38538,0.000626,0,9.9063e-05,-2.0396e-05,1.2155e-19,0,0.23096,-0.08065,0.0046654,0.0090603,1,0.626,1,0.0125,0
0.00091759,0.0014209,0.38837,0.000627,0,9.0738e-05,-2.0381e-05,1.207e-19,0,0.11168,-0.079823,-0.00011067,0.00429,1,0.627,1,0.0125,0
0.002336,0.0014113,0.39068,0.000628,0,9.9513e-05,-2.0367e-05,1.2134e-19,0,0.23453,-0.079132,0.0048009,0.0092027,1,0.628,1,0.0125,0
0.00095807,0.0014017,0.39371,0.000629,0,9.105e-05,-2.0353e-05,1.2091e-19,0,0.1143,-0.078313,-1.2516e-05,0.0043945,1,0.629,1,0.0125,0
0.0023855,0.0013921,0.39603,0.00063,0,9.9981e-05,-2.0339e-05,1.2176e-19,0,0.23822,-0.07763,0.0049423,0.00935,1,0.63,1,0.0125,0
0.0009997,0.0013825,0.39909,0.000631,0,9.1379e-05,-2.0326e-05,1.2176e-19,0,0.11707,-0.076817,9.267e-05,0.004505,1,0.631,1,0.0125,0
0.00096383,0.0013728,0.40183,0.000632,0,9.1178e-05,-2.0312e-05,1.2134e-19,0,0.11347,-0.076074,-5.4105e-05,0.0043609,1,0.632,1,0.0125,0
0.00098103,0.001363,0.40457,0.000633,0,9.1312e-05,-2.0299e-05,1.2144e-19,0,0.11452,-0.075333,-1.4196e-05,0.0044028,1,0.633,1,0.0125,0
0.0010006,0.0013531,0.40731,0.000634,0,9.1464e-05,-2.0285e-05,1.2123e-19,0,0.11579,-0.074595,3.4882e-05,0.0044535,1,0.634,1,0.0125,0
0.0010205,0.0013432,0.41006,0.000635,0,9.1621e-05,-2.0272e-05,1.2102e-19,0,0.11709,-0.07386,8.5849e-05,0.0045058,1,0.635,1,0.0125,0
0.0010406,0.0013333,0.41282,0.000636,0,9.1781e-05,-2.0258e-05,1.207e-19,0,0.11844,-0.07313,0.00013839,0.0045594,1,0.636,1,0.0125,0
0.001061,0.0013235,0.41559,0.000637,0,9.1946e-05,-2.0245e-05,1.2134e-19,0,0.11981,-0.072403,0.00019248,0.0046142,1,0.637,1,0.0125,0
0.0010815,0.0013136,0.41837,0.000638,0,9.2114e-05,-2.0232e-05,1.2091e-19,0,0.12121,-0.071681,0.00024811,0.0046703,1,0.638,1,0.0125,0
0.0011023,0.0013038,0.42116,0.000639,0,9.2286e-05,-2.0219e-05,1.2197e-19,0,0.12265,-0.070962,0.00030526,0.0047277,1,0.639,1,0.0125,0
0.0011233,0.001294,0.42396,0.00064,0,9.2463e-05,-2.0206e-05,1.2091e-19,0,0.12411,-0.070248,0.00036392,0.0047863,1,0.64,1,0.0125,0
0.0011445,0.0012842,0.42676,0.000641,0,9.2644e-05,-2.0193e-05,1.2187e-19,0,0.12561,-0.069537,0.00042408,0.0048461,1,0.641,1,0.0125,0
0.0011658,0.0012744,0.42957,0.000642,0,9.2829e-05,-2.018e-05,1.1964e-19,0,0.12713,-0.068831,0.00048573,0.0049071,1,0.642,1,0.0125,0
0.0011874,0.0012646,0.43239,0.000643,0,9.3018e-05,-2.0167e-05,1.1964e-19,0,0.12868,-0.06813,0.00054884,0.0049693,1,0.643,1,0.0125,0
0.0012092,0.0012549,0.43521,0.000644,0,9.3211e-05,-2.0155e-05,1.207e-19,0,0.13027,-0.067432,0.00061341,0.0050326,1,0.644,1,0.0125,0
0.0012311,0.0012452,0.43803,0.000645,0,9.3409e-05,-2.0143e-05,1.188e-19,0,0.13188,-0.06674,0.00067941,0.0050972,1,0.645,1,0.0125,0
0.0012532,0.0012355,0.44087,0.000646,0,9.3611e-05,-2.013e-05,1.2028e-19,0,0.13352,-0.066051,0.00074684,0.0051628,1,0.646,1,0.0125,0
0.0012755,0.0012259,0.44371,0.000647,0,9.3817e-05,-2.0118e-05,1.188e-19,0,0.13519,-0.065367,0.00081567,0.0052296,1,0.647,1,0.0125,0
0.0012979,0.0012162,0.44655,0.000648,0,9.4028e-05,-2.0106e-05,1.1986e-19,0,0.13689,-0.064688,0.0008859,0.0052976,1,0.648,1,0.0125,0
0.0013205,0.0012067,0.44939,0.000649,0,9.4243e-05,-2.0094e-05,1.1901e-19,0,0.13861,-0.064014,0.00095752,0.0053666,1,0.649,1,0.0125,0
0.0013433,0.0011971,0.45224,0.00065,0,9.4463e-05,-2.0083e-05,1.2049e-19,0,0.14036,-0.063344,0.0010305,0.0054368,1,0.65,1,0.0125,0
0.0013662,0.0011876,0.4551,0.000651,0,9.4687e-05,-2.0071e-05,1.1901e-19,0,0.14214,-0.062678,0.0011048,0.005508,1,0.651,1,0.0125,0
0.0013893,0.0011781,0.45795,0.000652,0,9.4916e-05,-2.006e-05,1.1869e-19,0,0.14394,-0.062018,0.0011805,0.0055803,1,0.652,1,0.0125,0
0.0014125,0.0011686,0.46081,0.000653,0,9.515e-05,-2.0048e-05,1.2049e-19,0,0.14577,-0.061362,0.0012575,0.0056536,1,0.653,1,0.0125,0
0.0014358,0.0011592,0.46368,0.000654,0,9.5388e-05,-2.0037e-05,1.1901e-19,0,0.14763,-0.06071,0.0013358,0.005728,1,0.654,1,0.0125,0
0.0014593,0.0011498,0.46654,0.000655,0,9.5632e-05,-2.0026e-05,1.1954e-19,0,0.14951,-0.060064,0.0014154,0.0058034,1,0.655,1,0.0125,0
0.0014829,0.0011405,0.46941,0.000656,0,9.5879e-05,-2.0015e-05,1.1731e-19,0,0.15142,-0.059422,0.0014963,0.0058799,1,0.656,1,0.0125,0
0.0015066,0.0011312,0.47228,0.000657,0,9.6132e-05,-2.0005e-05,1.1986e-19,0,0.15335,-0.058785,0.0015784,0.0059574,1,0.657,1,0.0125,0
0.0015305,0.0011219,0.47515,0.000658,0,9.639e-05,-1.9994e-05,1.1827e-19,0,0.15531,-0.058153,0.0016618,0.0060358,1,0.658,1,0.0125,0
0.0015545,0.0011127,0.47802,0.000659,0,9.6653e-05,-1.9984e-05,1.1816e-19,0,0.15729,-0.057526,0.0017465,0.0061153,1,0.659,1,0.0125,0
0.0015786,0.0011035,0.4809,0.00066,0,9.6921e-05,-1.9973e-05,1.1837e-19,0,0.1593,-0.056903,0.0018324,0.0061957,1,0.66,1,0.0125,0
0.0016028,0.0010943,0.48378,0.000661,0,9.7194e-05,-1.9963e-05,1.1795e-19,0,0.16133,-0.056285,0.0019195,0.0062772,1,0.661,1,0.0125,0
0.0016271,0.0010852,0.48666,0.000662,0,9.7472e-05,-1.9953e-05,1.1943e-19,0,0.16338,-0.055672,0.0020079,0.0063595,1,0.662,1,0.0125,0
0.0016515,0.0010762,0.48954,0.000663,0,9.7755e-05,-1.9944e-05,1.1795e-19,0,0.16546,-0.055064,0.0020974,0.0064428,1,0.663,1,0.0125,0
0.001676,0.0010671,0.49242,0.000664,0,9.8044e-05,-1.9934e-05,1.1911e-19,0,0.16756,-0.05446,0.0021881,0.0065271,1,0.664,1,0.0125,0
0.0017006,0.0010582,0.4953,0.000665,0,9.8338e-05,-1.9925e-05,1.1869e-19,0,0.16968,-0.053861,0.00228,0.0066123,1,0.665,1,0.0125,0
0.0017253,0.0010492,0.49818,0.000666,0,9.8637e-05,-1.9915e-05,1.1964e-19,0,0.17183,-0.053267,0.002373,0.0066983,1,0.666,1,0.0125,0
0.0017501,0.0010403,0.50107,0.000667,0,9.8942e-05,-1.9906e-05,1.1869e-19,0,0.174,-0.052678,0.0024672,0.0067853,1,0.667,1,0.0125,0
0.001775,0.0010315,0.50395,0.000668,0,9.9253e-05,-1.9897e-05,1.171e-19,0,0.17619,-0.052094,0.0025625,0.0068732,1,0.668,1,0.0125,0
0.0018,0.0010226,0.50684,0.000669,0,9.9569e-05,-1.9888e-05,1.1901e-19,0,0.1784,-0.051514,0.0026589,0.006962,1,0.669,1,0.0125,0
0.001825,0.0010139,0.50972,0.00067,0,9.9891e-05,-1.988e-05,1.1795e-19,0,0.18063,-0.050939,0.0027564,0.0070516,1,0.67,1,0.0125,0
0.0018501,0.0010051,0.5126,0.000671,0,0.00010022,-1.9871e-05,1.1943e-19,0,0.18289,-0.050369,0.002855,0.0071421,1,0.671,1,0.0125,0
0.0018753,0.00099646,0.51549,0.000672,0,0.00010055,-1.9863e-05,1.188e-19,0,0.18516,-0.049804,0.0029547,0.0072334,1,0.672,1,0.0125,0
0.0019006,0.00098782,0.51837,0.000673,0,0.00010089,-1.9855e-05,1.1784e-19,0,0.18746,-0.049243,0.0030554,0.0073256,1,0.673,1,0.0125,0
0.0019259,0.00097923,0.52126,0.000674,0,0.00010124,-1.9847e-05,1.1933e-19,0,0.18977,-0.048688,0.0031572,0.0074186,1,0.674,1,0.0125,0
0.0019512,0.00097068,0.52414,0.000675,0,0.00010159,-1.9839e-05,1.189e-19,0,0.19211,-0.048136,0.00326,0.0075123,1,0.675,1,0.0125,0
0.0019767,0.00096218,0.52703,0.000676,0,0.00010195,-1.9832e-05,1.2028e-19,0,0.19447,-0.04759,0.0033639,0.0076069,1,0.676,1,0.0125,0
0.0020022,0.00095372,0.52991,0.000677,0,0.00010231,-1.9824e-05,1.1753e-19,0,0.19684,-0.047049,0.0034687,0.0077023,1,0.677,1,0.0125,0
0.0020277,0.00094531,0.53279,0.000678,0,0.00010268,-1.9817e-05,1.1954e-19,0,0.19924,-0.046512,0.0035745,0.0077985,1,0.678,1,0.0125,0
0.0020533,0.00093695,0.53567,0.000679,0,0.00010306,-1.981e-05,1.1848e-19,0,0.20165,-0.045979,0.0036813,0.0078954,1,0.679,1,0.0125,0
0.0020789,0.00092863,0.53855,0.00068,0,0.00010344,-1.9804e-05,1.1816e-19,0,0.20408,-0.045452,0.0037891,0.0079931,1,0.68,1,0.0125,0
0.0021045,0.00092036,0.54143,0.000681,0,0.00010383,-1.9797e-05,1.1837e-19,0,0.20653,-0.044929,0.0038978,0.0080915,1,0.681,1,0.0125,0
0.0021302,0.00091213,0.54431,0.000682,0,0.00010423,-1.9791e-05,1.1774e-19,0,0.209,-0.044411,0.0040074,0.0081906,1,0.682,1,0.0125,0
0.0021559,0.00090395,0.54718,0.000683,0,0.00010463,-1.9784e-05,1.1816e-19,0,0.21149,-0.043898,0.004118,0.0082904,1,0.683,1,0.0125,0
0.0021817,0.00089582,0.55006,0.000684,0,0.00010504,-1.9778e-05,1.1795e-19,0,0.21399,-0.043389,0.0042294,0.008391,1,0.684,1,0.0125,0
0.0022074,0.00088774,0.55293,0.000685,0,0.00010546,-1.9773e-05,1.1763e-19,0,0.21651,-0.042885,0.0043417,0.0084922,1,0.685,1,0.0125,0
0.0022332,0.0008797,0.5558,0.000686,0,0.00010589,-1.9767e-05,1.1742e-19,0,0.21905,-0.042385,0.0044549,0.0085942,1,0.686,1,0.0125,0
0.002259,0.00087171,0.55867,0.000687,0,0.00010632,-1.9762e-05,1.1901e-19,0,0.2216,-0.041891,0.004569,0.0086967,1,0.687,1,0.0125,0
0.0022848,0.00086377,0.56153,0.000688,0,0.00010676,-1.9757e-05,1.1774e-19,0,0.22417,-0.0414,0.0046838,0.0088,1,0.688,1,0.0125,0
0.0023107,0.00085588,0.5644,0.000689,0,0.0001072,-1.9752e-05,1.188e-19,0,0.22676,-0.040915,0.0047996,0.0089039,1,0.689,1,0.0125,0
0.0023365,0.00084803,0.56726,0.00069,0,0.00010766,-1.9747e-05,1.1869e-19,0,0.22936,-0.040434,0.0049161,0.0090084,1,0.69,1,0.0125,0
0.0023623,0.00084024,0.57012,0.000691,0,0.00010812,-1.9743e-05,1.1954e-19,0,0.23198,-0.039957,0.0050334,0.0091135,1,0.691,1,0.0125,0
0.0023881,0.00083249,0.57297,0.000692,0,0.00010859,-1.9738e-05,1.1678e-19,0,0.23461,-0.039485,0.0051515,0.0092193,1,0.692,1,0.0125,0
0.002414,0.00082479,0.57582,0.000693,0,0.00010906,-1.9734e-05,1.1689e-19,0,0.23726,-0.039018,0.0052703,0.0093256,1,0.693,1,0.0125,0
0.0024398,0.00081714,0.57867,0.000694,0,0.00010955,-1.9731e-05,1.1964e-19,0,0.23992,-0.038555,0.0053899,0.0094325,1,0.694,1,0.0125,0
0.0024656,0.00080953,0.58152,0.000695,0,0.00011004,-1.9727e-05,1.1964e-19,0,0.24259,-0.038097,0.0055102,0.00954,1,0.695,1,0.0125,0
0.0024914,0.00080198,0.58436,0.000696,0,0.00011054,-1.9724e-05,1.1837e-19,0,0.24528,-0.037643,0.0056312,0.009648,1,0.696,1,0.0125,0
0.0025171,0.00079447,0.5872,0.000697,0,0.00011105,-1.9721e-05,1.188e-19,0,0.24798,-0.037194,0.0057529,0.0097566,1,0.697,1,0.0125,0
0.0025429,0.00078702,0.59004,0.000698,0,0.00011157,-1.9718e-05,1.1657e-19,0,0.2507,-0.036749,0.0058753,0.0098657,1,0.698,1,0.0125,0
0.0025686,0.00077961,0.59287,0.000699,0,0.00011209,-1.9715e-05,1.1816e-19,0,0.25342,-0.036309,0.0059984,0.0099753,1,0.699,1,0.0125,0
0.0025943,0.00077225,0.5957,0.0007,0,0.00011262,-1.9713e-05,1.1774e-19,0,0.25616,-0.035873,0.0061221,0.010085,1,0.7,1,0.0125,0
0.0016828,0.0007649,0.59891,0.000701,0,0.00010348,-1.9715e-05,1.1795e-19,0,0.16883,-0.035409,0.0026405,0.0065934,1,0.701,1,0.0125,0
0.002464,0.00075791,0.60143,0.000702,0,0.0001118,-1.9714e-05,1.1668e-19,0,0.24412,-0.035026,0.0056651,0.0096047,1,0.702,1,0.0125,0
0.0017102,0.00075018,0.60457,0.000703,0,0.00010414,-1.9713e-05,1.1901e-19,0,0.1717,-0.034568,0.0027829,0.0067093,1,0.703,1,0.0125,0
0.0025037,0.00074318,0.60708,0.000704,0,0.00011275,-1.9711e-05,1.1795e-19,0,0.24846,-0.034188,0.0058674,0.0097792,1,0.704,1,0.0125,0
0.0017592,0.00073548,0.61021,0.000705,0,0.00010506,-1.971e-05,1.1753e-19,0,0.17672,-0.033734,0.0030133,0.0069111,1,0.705,1,0.0125,0
0.0025473,0.00072859,0.6127,0.000706,0,0.00011377,-1.9708e-05,1.1827e-19,0,0.25323,-0.033362,0.0060883,0.0099713,1,0.706,1,0.0125,0
0.001809,0.00072096,0.61583,0.000707,0,0.00010602,-1.9708e-05,1.1848e-19,0,0.18187,-0.032915,0.0032497,0.0071181,1,0.707,1,0.0125,0
0.0025908,0.00071419,0.61831,0.000708,0,0.00011483,-1.9706e-05,1.1615e-19,0,0.25804,-0.03255,0.0063117,0.010165,1,0.708,1,0.0125,0
0.0018589,0.00070664,0.62142,0.000709,0,0.00010702,-1.9706e-05,1.1816e-19,0,0.18709,-0.032112,0.0034897,0.0073281,1,0.709,1,0.0125,0
0.0017688,0.00069974,0.62427,0.00071,0,0.00010623,-1.9708e-05,1.1837e-19,0,0.17844,-0.031723,0.0031573,0.0069829,1,0.71,1,0.0125,0
0.0017739,0.00069265,0.62707,0.000711,0,0.0001065,-1.9709e-05,1.188e-19,0,0.17909,-0.031337,0.003198,0.0070095,1,0.711,1,0.0125,0
0.0017935,0.00068551,0.62985,0.000712,0,0.00010694,-1.9709e-05,1.1774e-19,0,0.18117,-0.030952,0.0032969,0.0070932,1,0.712,1,0.0125,0
0.0018153,0.0006784,0.63263,0.000713,0,0.00010741,-1.9709e-05,1.1858e-19,0,0.18349,-0.030568,0.0034057,0.0071864,1,0.713,1,0.0125,0
0.0018375,0.00067133,0.63541,0.000714,0,0.0001079,-1.9709e-05,1.1827e-19,0,0.18585,-0.030187,0.0035168,0.0072816,1,0.714,1,0.0125,0
0.0018597,0.0006643,0.63817,0.000715,0,0.0001084,-1.9709e-05,1.1774e-19,0,0.18824,-0.029809,0.0036288,0.0073776,1,0.715,1,0.0125,0
0.001882,0.00065733,0.64093,0.000716,0,0.00010891,-1.9708e-05,1.1731e-19,0,0.19064,-0.029435,0.0037415,0.0074742,1,0.716,1,0.0125,0
0.0019042,0.00065041,0.64369,0.000717,0,0.00010942,-1.9708e-05,1.1731e-19,0,0.19305,-0.029065,0.0038549,0.0075712,1,0.717,1,0.0125,0
0.0019264,0.00064353,0.64644,0.000718,0,0.00010995,-1.9709e-05,1.1816e-19,0,0.19547,-0.028698,0.003969,0.0076688,1,0.718,1,0.0125,0
0.0019487,0.00063671,0.64918,0.000719,0,0.00011048,-1.9709e-05,1.1869e-19,0,0.19791,-0.028335,0.0040836,0.0077669,1,0.719,1,0.0125,0
0.0019709,0.00062994,0.65191,0.00072,0,0.00011103,-1.9709e-05,1.188e-19,0,0.20035,-0.027975,0.0041989,0.0078655,1,0.72,1,0.0125,0
0.001993,0.00062323,0.65464,0.000721,0,0.00011158,-1.971e-05,1.1668e-19,0,0.20281,-0.027619,0.0043148,0.0079645,1,0.721,1,0.0125,0
0.0020152,0.00061656,0.65736,0.000722,0,0.00011214,-1.9711e-05,1.1731e-19,0,0.20529,-0.027267,0.0044312,0.008064,1,0.722,1,0.0125,0
0.0020373,0.00060995,0.66008,0.000723,0,0.00011272,-1.9712e-05,1.1731e-19,0,0.20777,-0.026918,0.0045482,0.008164,1,0.723,1,0.0125,0
0.0020594,0.00060339,0.66278,0.000724,0,0.0001133,-1.9713e-05,1.188e-19,0,0.21026,-0.026573,0.0046657,0.0082644,1,0.724,1,0.0125,0
0.0020815,0.00059688,0.66548,0.000725,0,0.0001139,-1.9715e-05,1.1858e-19,0,0.21277,-0.026232,0.0047838,0.0083652,1,0.725,1,0.0125,0
0.0021035,0.00059042,0.66817,0.000726,0,0.0001145,-1.9716e-05,1.1816e-19,0,0.21528,-0.025894,0.0049023,0.0084664,1,0.726,1,0.0125,0
0.0021255,0.00058401,0.67086,0.000727,0,0.00011512,-1.9718e-05,1.1774e-19,0,0.2178,-0.025559,0.0050213,0.008568,1,0.727,1,0.0125,0
0.0021474,0.00057765,0.67354,0.000728,0,0.00011574,-1.972e-05,1.1731e-19,0,0.22034,-0.025229,0.0051409,0.0086701,1,0.728,1,0.0125,0
0.0021693,0.00057135,0.67621,0.000729,0,0.00011638,-1.9722e-05,1.1763e-19,0,0.22288,-0.024901,0.0052609,0.0087725,1,0.729,1,0.0125,0
0.0021911,0.0005651,0.67887,0.00073,0,0.00011703,-1.9725e-05,1.1763e-19,0,0.22543,-0.024578,0.0053813,0.0088753,1,0.73,1,0.0125,0
0.0022129,0.00055891,0.68152,0.000731,0,0.00011769,-1.9728e-05,1.1837e-19,0,0.22799,-0.024258,0.0055021,0.0089784,1,0.731,1,0.0125,0
0.0022346,0.00055277,0.68416,0.000732,0,0.00011836,-1.9731e-05,1.1837e-19,0,0.23056,-0.023942,0.0056232,0.0090817,1,0.732,1,0.0125,0
0.0022563,0.00054669,0.68679,0.000733,0,0.00011904,-1.9734e-05,1.1964e-19,0,0.23314,-0.02363,0.0057446,0.0091854,1,0.733,1,0.0125,0
0.0022779,0.00054066,0.68942,0.000734,0,0.00011973,-1.9737e-05,1.1816e-19,0,0.23572,-0.023321,0.0058664,0.0092893,1,0.734,1,0.0125,0
0.0022994,0.00053469,0.69203,0.000735,0,0.00012044,-1.9741e-05,1.1827e-19,0,0.2383,-0.023015,0.0059885,0.0093935,1,0.735,1,0.0125,0
0.0023208,0.00052877,0.69464,0.000736,0,0.00012115,-1.9745e-05,1.1911e-19,0,0.24089,-0.022714,0.0061109,0.0094979,1,0.736,1,0.0125,0
0.0023422,0.00052291,0.69723,0.000737,0,0.00012188,-1.9749e-05,1.1731e-19,0,0.24349,-0.022415,0.0062335,0.0096025,1,0.737,1,0.0125,0
0.0023634,0.0005171,0.69981,0.000738,0,0.00012262,-1.9754e-05,1.1964e-19,0,0.2461,-0.022121,0.0063564,0.0097073,1,0.738,1,0.0125,0
0.0023846,0.00051134,0.70239,0.000739,0,0.00012338,-1.9758e-05,1.1774e-19,0,0.2487,-0.02183,0.0064795,0.0098123,1,0.739,1,0.0125,0
0.0024057,0.00050564,0.70495,0.00074,0,0.00012414,-1.9763e-05,1.1901e-19,0,0.25132,-0.021542,0.0066029,0.0099175,1,0.74,1,0.0125,0
0.0024267,0.0005,0.70751,0.000741,0,0.00012492,-1.9769e-05,1.1498e-19,0,0.25393,-0.021258,0.0067265,0.010023,1,0.741,1,0.0125,0
0.0024477,0.0004944,0.71005,0.000742,0,0.00012571,-1.9774e-05,1.1689e-19,0,0.25656,-0.020977,0.0068502,0.010128,1,0.742,1,0.0125,0
0.0024685,0.00048886,0.71259,0.000743,0,0.00012652,-1.978e-05,1.1742e-19,0,0.25918,-0.0207,0.0069741,0.010234,1,0.743,1,0.0125,0
0.0024892,0.00048338,0.71511,0.000744,0,0.00012734,-1.9786e-05,1.1753e-19,0,0.26181,-0.020426,0.0070982,0.01034,1,0.744,1,0.0125,0
0.0025099,0.00047794,0.71763,0.000745,0,0.00012817,-1.9793e-05,1.1795e-19,0,0.26444,-0.020156,0.0072224,0.010446,1,0.745,1,0.0125,0
0.0025304,0.00047256,0.72013,0.000746,0,0.00012901,-1.9799e-05,1.1668e-19,0,0.26707,-0.019889,0.0073467,0.010552,1,0.746,1,0.0125,0
0.0025508,0.00046723,0.72262,0.000747,0,0.00012987,-1.9806e-05,1.1795e-19,0,0.26971,-0.019625,0.0074712,0.010658,1,0.747,1,0.0125,0
0.0025711,0.00046196,0.72511,0.000748,0,0.00013075,-1.9814e-05,1.1742e-19,0,0.27235,-0.019364,0.0075957,0.010764,1,0.748,1,0.0125,0
0.0025914,0.00045673,0.72758,0.000749,0,0.00013164,-1.9821e-05,1.188e-19,0,0.27499,-0.019107,0.0077203,0.010871,1,0.749,1,0.0125,0
0.0026115,0.00045156,0.73004,0.00075,0,0.00013254,-1.9829e-05,1.1657e-19,0,0.27763,-0.018853,0.007845,0.010977,1,0.75,1,0.0125,0
0.0026315,0.00044644,0.73249,0.000751,0,0.00013346,-1.9837e-05,1.1858e-19,0,0.28027,-0.018602,0.0079697,0.011083,1,0.751,1,0.0125,0
0.0026513,0.00044137,0.73493,0.000752,0,0.00013439,-1.9846e-05,1.1742e-19,0,0.28291,-0.018354,0.0080945,0.01119,1,0.752,1,0.0125,0
0.0026711,0.00043635,0.73736,0.000753,0,0.00013534,-1.9855e-05,1.1731e-19,0,0.28556,-0.01811,0.0082192,0.011296,1,0.753,1,0.0125,0
0.0026908,0.00043138,0.73978,0.000754,0,0.0001363,-1.9864e-05,1.1901e-19,0,0.2882,-0.017869,0.008344,0.011403,1,0.754,1,0.0125,0
0.0021615,0.00042622,0.7425,0.000755,0,0.00012756,-1.988e-05,1.171e-19,0,0.2326,-0.017612,0.0061369,0.00918,1,0.755,1,0.0125,0
0.002547,0.00042184,0.74469,0.000756,0,0.00013498,-1.9893e-05,1.1731e-19,0,0.274,-0.017406,0.0078078,0.010836,1,0.756,1,0.0125,0
0.0026873,0.00041687,0.74701,0.000757,0,0.00013814,-1.9902e-05,1.1816e-19,0,0.28949,-0.017181,0.0084474,0.011456,1,0.757,1,0.0125,0
0.0022102,0.00041164,0.74967,0.000758,0,0.00013006,-1.9916e-05,1.1742e-19,0,0.23915,-0.01693,0.006453,0.009444,1,0.758,1,0.0125,0
0.0025937,0.00040733,0.75183,0.000759,0,0.00013773,-1.9927e-05,1.1816e-19,0,0.2806,-0.016728,0.0081274,0.011102,1,0.759,1,0.0125,0
0.0022155,0.00040217,0.75441,0.00076,0,0.00013129,-1.9941e-05,1.1827e-19,0,0.24065,-0.016489,0.0065484,0.0095051,1,0.76,1,0.0125,0
0.0026146,0.00039788,0.75654,0.000761,0,0.00013944,-1.9952e-05,1.1933e-19,0,0.28394,-0.016292,0.008297,0.011237,1,0.761,1,0.0125,0
0.002252,0.00039274,0.75909,0.000762,0,0.00013316,-1.9966e-05,1.1943e-19,0,0.24551,-0.016056,0.0067803,0.0097012,1,0.762,1,0.0125,0
0.0026458,0.00038854,0.76119,0.000763,0,0.00014141,-1.9977e-05,1.1816e-19,0,0.28843,-0.015862,0.0085145,0.011418,1,0.763,1,0.0125,0
0.002291,0.00038348,0.76372,0.000764,0,0.00013516,-1.999e-05,1.1827e-19,0,0.25072,-0.015631,0.0070266,0.0099108,1,0.764,1,0.0125,0
0.0026777,0.00037937,0.7658,0.000765,0,0.00014347,-2.0001e-05,1.2049e-19,0,0.29304,-0.015441,0.008737,0.011604,1,0.765,1,0.0125,0
0.00233,0.00037441,0.7683,0.000766,0,0.00013723,-2.0014e-05,1.1837e-19,0,0.25596,-0.015214,0.0072746,0.010122,1,0.766,1,0.0125,0
0.0027092,0.00037039,0.77036,0.000767,0,0.00014561,-2.0026e-05,1.1922e-19,0,0.29765,-0.015028,0.0089598,0.01179,1,0.767,1,0.0125,0
0.0023686,0.00036553,0.77283,0.000768,0,0.00013938,-2.004e-05,1.1954e-19,0,0.2612,-0.014807,0.0075227,0.010333,1,0.768,1,0.0125,0
0.0022715,0.00036127,0.77516,0.000769,0,0.00013804,-2.0058e-05,1.1911e-19,0,0.25111,-0.014609,0.0071356,0.0099302,1,0.769,1,0.0125,0
0.0027093,0.00035738,0.77714,0.00077,0,0.00014795,-2.0071e-05,1.1996e-19,0,0.29945,-0.014436,0.0090863,0.011864,1,0.77,1,0.0125,0
0.0024099,0.00035257,0.77956,0.000771,0,0.00014239,-2.0084e-05,1.2102e-19,0,0.26731,-0.014224,0.0078226,0.010579,1,0.771,1,0.0125,0
0.0023214,0.00034838,0.78184,0.000772,0,0.00014121,-2.0102e-05,1.188e-19,0,0.25813,-0.01403,0.0074725,0.010213,1,0.772,1,0.0125,0
0.0023025,0.00034425,0.78407,0.000773,0,0.00014152,-2.012e-05,1.1933e-19,0,0.25655,-0.013846,0.0074262,0.01015,1,0.773,1,0.0125,0
0.0023068,0.0003401,0.78627,0.000774,0,0.00014234,-2.0138e-05,1.207e-19,0,0.25754,-0.013665,0.007483,0.01019,1,0.774,1,0.0125,0
0.002319,0.00033595,0.78845,0.000775,0,0.00014336,-2.0155e-05,1.2028e-19,0,0.25939,-0.013485,0.0075754,0.010266,1,0.775,1,0.0125,0
0.0023338,0.00033182,0.79062,0.000776,0,0.00014445,-2.0171e-05,1.2091e-19,0,0.26156,-0.013306,0.0076804,0.010353,1,0.776,1,0.0125,0
0.0023495,0.00032773,0.79277,0.000777,0,0.00014559,-2.0187e-05,1.2028e-19,0,0.26382,-0.013127,0.00779,0.010444,1,0.777,1,0.0125,0
0.0023654,0.00032367,0.79491,0.000778,0,0.00014675,-2.0202e-05,1.2028e-19,0,0.26613,-0.01295,0.0079012,0.010537,1,0.778,1,0.0125,0
0.0023813,0.00031966,0.79704,0.000779,0,0.00014794,-2.0218e-05,1.1986e-19,0,0.26844,-0.012774,0.0080129,0.01063,1,0.779,1,0.0125,0
0.0023971,0.0003157,0.79916,0.00078,0,0.00014914,-2.0234e-05,1.2187e-19,0,0.27075,-0.0126,0.0081247,0.010723,1,0.78,1,0.0125,0
0.0024128,0.00031178,0.80126,0.000781,0,0.00015037,-2.025e-05,1.2134e-19,0,0.27306,-0.012428,0.0082365,0.010817,1,0.781,1,0.0125,0
0.0024284,0.00030791,0.80335,0.000782,0,0.00015162,-2.0266e-05,1.2176e-19,0,0.27537,-0.012258,0.0083481,0.01091,1,0.782,1,0.0125,0
0.0024439,0.00030408,0.80543,0.000783,0,0.00015289,-2.0283e-05,1.1986e-19,0,0.27767,-0.01209,0.0084595,0.011002,1,0.783,1,0.0125,0
0.0024593,0.0003003,0.80749,0.000784,0,0.00015418,-2.03e-05,1.2176e-19,0,0.27997,-0.011924,0.0085706,0.011095,1,0.784,1,0.0125,0
0.0024745,0.00029657,0.80954,0.000785,0,0.0001555,-2.0317e-05,1.224e-19,0,0.28226,-0.01176,0.0086816,0.011187,1,0.785,1,0.0125,0
0.0024896,0.00029288,0.81158,0.000786,0,0.00015683,-2.0334e-05,1.2134e-19,0,0.28454,-0.011598,0.0087922,0.011279,1,0.786,1,0.0125,0
0.0025045,0.00028923,0.8136,0.000787,0,0.00015819,-2.0351e-05,1.2113e-19,0,0.28682,-0.011438,0.0089026,0.011371,1,0.787,1,0.0125,0
0.0025193,0.00028563,0.81561,0.000788,0,0.00015957,-2.0369e-05,1.2218e-19,0,0.28909,-0.01128,0.0090126,0.011463,1,0.788,1,0.0125,0
0.002534,0.00028208,0.81761,0.000789,0,0.00016098,-2.0387e-05,1.2049e-19,0,0.29135,-0.011124,0.0091223,0.011554,1,0.789,1,0.0125,0
0.0025485,0.00027857,0.81959,0.00079,0,0.0001624,-2.0406e-05,1.2028e-19,0,0.29361,-0.01097,0.0092317,0.011645,1,0.79,1,0.0125,0
0.0025629,0.00027511,0.82156,0.000791,0,0.00016386,-2.0424e-05,1.2134e-19,0,0.29585,-0.010818,0.0093407,0.011735,1,0.791,1,0.0125,0
0.0025772,0.00027169,0.82352,0.000792,0,0.00016533,-2.0443e-05,1.2091e-19,0,0.29809,-0.010668,0.0094493,0.011825,1,0.792,1,0.0125,0
0.0025913,0.00026831,0.82546,0.000793,0,0.00016683,-2.0463e-05,1.2113e-19,0,0.30032,-0.010519,0.0095576,0.011915,1,0.793,1,0.0125,0
0.0026053,0.00026498,0.82739,0.000794,0,0.00016836,-2.0483e-05,1.2187e-19,0,0.30254,-0.010373,0.0096654,0.012005,1,0.794,1,0.0125,0
0.0026191,0.00026168,0.82931,0.000795,0,0.00016991,-2.0503e-05,1.2218e-19,0,0.30475,-0.010229,0.0097729,0.012094,1,0.795,1,0.0125,0
0.0026328,0.00025844,0.83121,0.000796,0,0.00017148,-2.0523e-05,1.2176e-19,0,0.30695,-0.010086,0.0098799,0.012183,1,0.796,1,0.0125,0
0.0026464,0.00025523,0.8331,0.000797,0,0.00017309,-2.0544e-05,1.2218e-19,0,0.30914,-0.0099459,0.0099864,0.012271,1,0.797,1,0.0125,0
0.0026598,0.00025207,0.83497,0.000798,0,0.00017472,-2.0565e-05,1.2367e-19,0,0.31133,-0.0098072,0.010093,0.012359,1,0.798,1,0.0125,0
0.0026731,0.00024895,0.83684,0.000799,0,0.00017637,-2.0586e-05,1.2324e-19,0,0.3135,-0.0096704,0.010198,0.012447,1,0.799,1,0.0125,0
0.0026862,0.00024587,0.83868,0.0008,0,0.00017805,-2.0608e-05,1.2208e-19,0,0.31566,-0.0095354,0.010303,0.012534,1,0.8,1,0.0125,0
0.0026991,0.00024283,0.84052,0.000801,0,0.00017976,-2.063e-05,1.2218e-19,0,0.3178,-0.0094022,0.010408,0.01262,1,0.801,1,0.0125,0
0.002712,0.00023983,0.84234,0.000802,0,0.0001815,-2.0652e-05,1.2324e-19,0,0.31994,-0.0092708,0.010512,0.012707,1,0.802,1,0.0125,0
0.0027246,0.00023688,0.84414,0.000803,0,0.00018327,-2.0675e-05,1.2346e-19,0,0.32206,-0.0091412,0.010615,0.012792,1,0.803,1,0.0125,0
0.0027371,0.00023396,0.84594,0.000804,0,0.00018507,-2.0699e-05,1.2282e-19,0,0.32418,-0.0090134,0.010719,0.012877,1,0.804,1,0.0125,0
0.0027495,0.00023109,0.84772,0.000805,0,0.00018689,-2.0722e-05,1.2346e-19,0,0.32627,-0.0088872,0.010821,0.012962,1,0.805,1,0.0125,0
0.0027617,0.00022825,0.84948,0.000806,0,0.00018875,-2.0746e-05,1.243e-19,0,0.32836,-0.0087628,0.010923,0.013046,1,0.806,1,0.0125,0
0.0027738,0.00022545,0.85123,0.000807,0,0.00019063,-2.077e-05,1.243e-19,0,0.33043,-0.0086401,0.011024,0.01313,1,0.807,1,0.0125,0
0.0024995,0.00022241,0.85319,0.000808,0,0.00018278,-2.0803e-05,1.2356e-19,0,0.29884,-0.0085075,0.0097782,0.011867,1,0.808,1,0.0125,0
0.0026492,0.00022005,0.85481,0.000809,0,0.00018934,-2.0832e-05,1.2473e-19,0,0.31703,-0.0084013,0.01052,0.012595,1,0.809,1,0.0125,0
0.0027316,0.00021742,0.85646,0.00081,0,0.00019372,-2.0859e-05,1.2515e-19,0,0.32736,-0.008292,0.01095,0.013009,1,0.81,1,0.0125,0
0.0025056,0.00021442,0.85835,0.000811,0,0.00018725,-2.0891e-05,1.2346e-19,0,0.3013,-0.0081687,0.0099257,0.011967,1,0.811,1,0.0125,0
0.0026642,0.0002121,0.85992,0.000812,0,0.00019442,-2.092e-05,1.2462e-19,0,0.32063,-0.008067,0.010714,0.012741,1,0.812,1,0.0125,0
0.0027529,0.00020954,0.86152,0.000813,0,0.00019923,-2.0946e-05,1.2547e-19,0,0.33178,-0.0079611,0.011178,0.013188,1,0.813,1,0.0125,0
0.0025398,0.00020662,0.86336,0.000814,0,0.00019299,-2.0977e-05,1.2441e-19,0,0.30711,-0.0078407,0.01021,0.012201,1,0.814,1,0.0125,0
0.0026932,0.00020437,0.86488,0.000815,0,0.0002003,-2.1005e-05,1.2462e-19,0,0.32593,-0.0077412,0.010978,0.012955,1,0.815,1,0.0125,0
0.0027809,0.00020191,0.86645,0.000816,0,0.0002053,-2.1031e-05,1.2705e-19,0,0.33701,-0.0076379,0.01144,0.013399,1,0.816,1,0.0125,0
0.0025763,0.00019909,0.86823,0.000817,0,0.00019917,-2.1062e-05,1.2515e-19,0,0.31322,-0.0075208,0.010507,0.012448,1,0.817,1,0.0125,0
0.002723,0.00019694,0.86972,0.000818,0,0.00020655,-2.109e-05,1.2547e-19,0,0.33134,-0.0074239,0.011248,0.013173,1,0.818,1,0.0125,0
0.0025609,0.00019429,0.87145,0.000819,0,0.00020189,-2.1123e-05,1.2674e-19,0,0.31253,-0.0073134,0.010514,0.012422,1,0.819,1,0.0125,0
0.00272,0.00019221,0.8729,0.00082,0,0.00020998,-2.1153e-05,1.2727e-19,0,0.33219,-0.0072209,0.011315,0.013208,1,0.82,1,0.0125,0
0.0025724,0.00018961,0.87459,0.000821,0,0.00020579,-2.1186e-05,1.2663e-19,0,0.31505,-0.0071143,0.010648,0.012524,1,0.821,1,0.0125,0
0.0027317,0.00018758,0.87601,0.000822,0,0.00021412,-2.1215e-05,1.2684e-19,0,0.33479,-0.0070242,0.011453,0.013314,1,0.822,1,0.0125,0
0.0025909,0.00018504,0.87766,0.000823,0,0.00021012,-2.1248e-05,1.2663e-19,0,0.31842,-0.00692,0.010817,0.01266,1,0.823,1,0.0125,0
0.0027471,0.00018305,0.87906,0.000824,0,0.00021858,-2.1277e-05,1.2663e-19,0,0.33785,-0.0068317,0.01161,0.013437,1,0.824,1,0.0125,0
0.0026111,0.00018058,0.88068,0.000825,0,0.00021469,-2.1311e-05,1.2716e-19,0,0.32199,-0.0067295,0.010994,0.012804,1,0.825,1,0.0125,0
0.0027634,0.00017865,0.88205,0.000826,0,0.00022323,-2.134e-05,1.2875e-19,0,0.341,-0.006643,0.011771,0.013565,1,0.826,1,0.0125,0
0.0026313,0.00017625,0.88364,0.000827,0,0.00021943,-2.1373e-05,1.2737e-19,0,0.32556,-0.006543,0.011172,0.012948,1,0.827,1,0.0125,0
0.0027794,0.00017438,0.88499,0.000828,0,0.00022804,-2.1403e-05,1.2854e-19,0,0.34413,-0.0064583,0.011931,0.013691,1,0.828,1,0.0125,0
0.0026511,0.00017205,0.88655,0.000829,0,0.00022433,-2.1437e-05,1.2811e-19,0,0.32909,-0.0063605,0.011348,0.01309,1,0.829,1,0.0125,0
0.0025839,0.00016997,0.88805,0.00083,0,0.00022328,-2.1474e-05,1.2981e-19,0,0.32144,-0.0062685,0.011058,0.012785,1,0.83,1,0.0125,0
0.0027553,0.00016825,0.88933,0.000831,0,0.00023333,-2.1506e-05,1.2822e-19,0,0.34289,-0.0061901,0.011931,0.013644,1,0.831,1,0.0125,0
0.0026525,0.00016603,0.89083,0.000832,0,0.00023066,-2.1541e-05,1.279e-19,0,0.33089,-0.0060986,0.01147,0.013164,1,0.832,1,0.0125,0
0.0025979,0.00016403,0.89228,0.000833,0,0.00023018,-2.1579e-05,1.2833e-19,0,0.32472,-0.0060113,0.011239,0.012918,1,0.833,1,0.0125,0
0.0027676,0.00016238,0.89352,0.000834,0,0.00024059,-2.161e-05,1.2748e-19,0,0.34604,-0.0059362,0.012107,0.013772,1,0.834,1,0.0125,0
0.0026734,0.00016025,0.89497,0.000835,0,0.00023826,-2.1646e-05,1.296e-19,0,0.33503,-0.0058482,0.011685,0.013332,1,0.835,1,0.0125,0
0.0026221,0.00015832,0.89637,0.000836,0,0.00023795,-2.1684e-05,1.3044e-19,0,0.32923,-0.0057636,0.01147,0.013101,1,0.836,1,0.0125,0
0.0027858,0.00015675,0.89757,0.000837,0,0.00024854,-2.1715e-05,1.3023e-19,0,0.3499,-0.0056909,0.012311,0.013928,1,0.837,1,0.0125,0
0.0026969,0.00015471,0.89898,0.000838,0,0.0002464,-2.1751e-05,1.3087e-19,0,0.33947,-0.0056058,0.011913,0.013512,1,0.838,1,0.0125,0
0.0026473,0.00015286,0.90034,0.000839,0,0.00024621,-2.1789e-05,1.2875e-19,0,0.33385,-0.0055239,0.011704,0.013287,1,0.839,1,0.0125,0
0.0026206,0.00015111,0.90167,0.00084,0,0.00024719,-2.1829e-05,1.2854e-19,0,0.33102,-0.0054453,0.011607,0.013175,1,0.84,1,0.0125,0
0.0027874,0.00014966,0.90281,0.000841,0,0.00025857,-2.1862e-05,1.3023e-19,0,0.35216,-0.0053773,0.012467,0.01402,1,0.841,1,0.0125,0
0.0027132,0.00014775,0.90415,0.000842,0,0.00025712,-2.1898e-05,1.3171e-19,0,0.34346,-0.0052974,0.012138,0.013674,1,0.842,1,0.0125,0
0.0026707,0.00014601,0.90546,0.000843,0,0.00025734,-2.1937e-05,1.3108e-19,0,0.33866,-0.0052199,0.011962,0.013482,1,0.843,1,0.0125,0
0.0026473,0.00014436,0.90673,0.000844,0,0.00025859,-2.1977e-05,1.3193e-19,0,0.3362,-0.0051451,0.01188,0.013384,1,0.844,1,0.0125,0
0.0026353,0.00014276,0.90798,0.000845,0,0.00026049,-2.2018e-05,1.315e-19,0,0.33516,-0.0050727,0.011853,0.013343,1,0.845,1,0.0125,0
0.0027987,0.00014143,0.90905,0.000846,0,0.00027253,-2.2052e-05,1.315e-19,0,0.35595,-0.0050096,0.0127,0.014175,1,0.846,1,0.0125,0
0.0027369,0.00013966,0.91031,0.000847,0,0.00027174,-2.2089e-05,1.3108e-19,0,0.34872,-0.0049352,0.012428,0.013887,1,0.847,1,0.0125,0
0.0027004,0.00013805,0.91154,0.000848,0,0.00027236,-2.2129e-05,1.3404e-19,0,0.34459,-0.0048627,0.01228,0.013722,1,0.848,1,0.0125,0
0.0026795,0.00013652,0.91275,0.000849,0,0.0002739,-2.2169e-05,1.3298e-19,0,0.3424,-0.0047922,0.012208,0.013635,1,0.849,1,0.0125,0
0.0026683,0.00013504,0.91393,0.00085,0,0.00027604,-2.2211e-05,1.3193e-19,0,0.34141,-0.0047238,0.012184,0.013596,1,0.85,1,0.0125,0
0.0026633,0.00013359,0.91509,0.000851,0,0.00027858,-2.2253e-05,1.3362e-19,0,0.34117,-0.004657,0.01219,0.013587,1,0.851,1,0.0125,0
0.0026621,0.00013216,0.91624,0.000852,0,0.00028139,-2.2295e-05,1.3489e-19,0,0.3414,-0.0045917,0.012214,0.013597,1,0.852,1,0.0125,0
0.0026633,0.00013076,0.91737,0.000853,0,0.0002844,-2.2338e-05,1.3277e-19,0,0.34193,-0.0045276,0.01225,0.013619,1,0.853,1,0.0125,0
0.002666,0.00012938,0.91849,0.000854,0,0.00028755,-2.238e-05,1.3341e-19,0,0.34264,-0.0044645,0.012294,0.013648,1,0.854,1,0.0125,0
0.0026749,0.00012833,0.91941,0.000855,0,0.00029073,-2.2422e-05,1.3298e-19,0,0.34409,-0.0044133,0.012364,0.013706,1,0.855,1,0.0125,0
0.0026893,0.00012769,0.92009,0.000856,0,0.00029379,-2.2465e-05,1.332e-19,0,0.3462,-0.0043765,0.012457,0.013791,1,0.856,1,0.0125,0
0.002705,0.00012734,0.92061,0.000857,0,0.00029659,-2.2509e-05,1.351e-19,0,0.34845,-0.0043495,0.012553,0.013881,1,0.857,1,0.0125,0
0.00272,0.00012719,0.92103,0.000858,0,0.0002991,-2.2554e-05,1.3436e-19,0,0.35061,-0.0043294,0.012643,0.013968,1,0.858,1,0.0125,0
0.0027328,0.00012715,0.92138,0.000859,0,0.00030135,-2.26e-05,1.3595e-19,0,0.35247,-0.004313,0.01272,0.014042,1,0.859,1,0.0125,0
0.0027424,0.00012711,0.92174,0.00086,0,0.0003034,-2.2647e-05,1.3468e-19,0,0.35393,-0.004297,0.012781,0.014101,1,0.86,1,0.0125,0
0.0027516,0.0001272,0.92204,0.000861,0,0.00030528,-2.2696e-05,1.3701e-19,0,0.35534,-0.0042854,0.012838,0.014157,1,0.861,1,0.0125,0
0.0027597,0.00012736,0.92231,0.000862,0,0.00030701,-2.2746e-05,1.3807e-19,0,0.3566,-0.0042764,0.012889,0.014208,1,0.862,1,0.0125,0
0.0027675,0.00012762,0.92252,0.000863,0,0.0003086,-2.2799e-05,1.3711e-19,0,0.35781,-0.004271,0.012936,0.014256,1,0.863,1,0.0125,0
0.0027755,0.000128,0.92267,0.000864,0,0.00031004,-2.2852e-05,1.3701e-19,0,0.35905,-0.0042706,0.012983,0.014305,1,0.864,1,0.0125,0
0.0027815,0.0001284,0.92282,0.000865,0,0.00031134,-2.2908e-05,1.3595e-19,0,0.36003,-0.0042712,0.01302,0.014344,1,0.865,1,0.0125,0
0.0027862,0.0001288,0.92297,0.000866,0,0.00031256,-2.2965e-05,1.3542e-19,0,0.36083,-0.0042727,0.013049,0.014376,1,0.866,1,0.0125,0
0.0027903,0.00012924,0.92311,0.000867,0,0.0003137,-2.3024e-05,1.369e-19,0,0.36156,-0.004276,0.013075,0.014405,1,0.867,1,0.0125,0
0.0027936,0.00012968,0.92325,0.000868,0,0.00031478,-2.3084e-05,1.3828e-19,0,0.36218,-0.0042802,0.013096,0.01443,1,0.868,1,0.0125,0
0.0027963,0.00013013,0.92339,0.000869,0,0.00031583,-2.3146e-05,1.3807e-19,0,0.36273,-0.0042855,0.013113,0.014452,1,0.869,1,0.0125,0
0.002799,0.00013062,0.92351,0.00087,0,0.00031685,-2.3209e-05,1.3913e-19,0,0.36328,-0.0042926,0.013131,0.014474,1,0.87,1,0.0125,0
0.0028019,0.00013114,0.92362,0.000871,0,0.00031782,-2.3274e-05,1.3828e-19,0,0.36384,-0.0043016,0.013148,0.014496,1,0.871,1,0.0125,0
0.0028048,0.00013169,0.92371,0.000872,0,0.00031876,-2.334e-05,1.3881e-19,0,0.3644,-0.0043127,0.013165,0.014518,1,0.872,1,0.0125,0
0.0028072,0.00013225,0.9238,0.000873,0,0.00031966,-2.3407e-05,1.3965e-19,0,0.36488,-0.0043245,0.013178,0.014537,1,0.873,1,0.0125,0
0.0028091,0.00013281,0.92389,0.000874,0,0.00032053,-2.3475e-05,1.3976e-19,0,0.36532,-0.0043373,0.01319,0.014554,1,0.874,1,0.0125,0
0.0028108,0.00013338,0.92398,0.000875,0,0.00032139,-2.3544e-05,1.4071e-19,0,0.36572,-0.0043508,0.013199,0.01457,1,0.875,1,0.0125,0
0.0028123,0.00013394,0.92408,0.000876,0,0.00032223,-2.3615e-05,1.4124e-19,0,0.36609,-0.004365,0.013208,0.014585,1,0.876,1,0.0125,0
0.0028137,0.00013451,0.92417,0.000877,0,0.00032307,-2.3686e-05,1.4103e-19,0,0.36645,-0.0043799,0.013216,0.014599,1,0.877,1,0.0125,0
0.0028149,0.00013507,0.92426,0.000878,0,0.00032389,-2.3758e-05,1.422e-19,0,0.36679,-0.0043955,0.013223,0.014612,1,0.878,1,0.0125,0
0.0028161,0.00013564,0.92435,0.000879,0,0.00032472,-2.3831e-05,1.4283e-19,0,0.36712,-0.0044117,0.013229,0.014625,1,0.879,1,0.0125,0
0.0028172,0.0001362,0.92444,0.00088,0,0.00032554,-2.3905e-05,1.4336e-19,0,0.36745,-0.0044286,0.013236,0.014638,1,0.88,1,0.0125,0
0.0028183,0.00013677,0.92453,0.000881,0,0.00032636,-2.398e-05,1.4251e-19,0,0.36777,-0.0044459,0.013241,0.014651,1,0.881,1,0.0125,0
0.0028194,0.00013734,0.92462,0.000882,0,0.00032718,-2.4055e-05,1.4505e-19,0,0.36808,-0.0044638,0.013247,0.014663,1,0.882,1,0.0125,0
0.0028208,0.00013792,0.9247,0.000883,0,0.000328,-2.4131e-05,1.4442e-19,0,0.36843,-0.0044828,0.013254,0.014677,1,0.883,1,0.0125,0
0.002822,0.0001385,0.92478,0.000884,0,0.0003288,-2.4208e-05,1.4558e-19,0,0.36876,-0.0045023,0.01326,0.01469,1,0.884,1,0.0125,0
0.0028232,0.00013909,0.92487,0.000885,0,0.00032961,-2.4285e-05,1.4505e-19,0,0.36908,-0.0045223,0.013265,0.014702,1,0.885,1,0.0125,0
0.0028246,0.00013969,0.92494,0.000886,0,0.0003304,-2.4363e-05,1.4569e-19,0,0.36944,-0.0045435,0.013271,0.014716,1,0.886,1,0.0125,0
0.0028263,0.00014032,0.925,0.000887,0,0.00033118,-2.4442e-05,1.4548e-19,0,0.36981,-0.0045659,0.013279,0.014731,1,0.887,1,0.0125,0
0.0028277,0.00014095,0.92506,0.000888,0,0.00033194,-2.4521e-05,1.4643e-19,0,0.37015,-0.0045888,0.013284,0.014744,1,0.888,1,0.0125,0
0.0026964,0.00014167,0.92511,0.000889,0,0.00032293,-2.4614e-05,1.4781e-19,0,0.35362,-0.0046174,0.012613,0.014082,1,0.889,1,0.0125,0
0.0027363,0.00014241,0.92516,0.00089,0,0.00032645,-2.4698e-05,1.4865e-19,0,0.35883,-0.0046431,0.012811,0.01429,1,0.89,1,0.0125,0
0.0027648,0.00014309,0.92521,0.000891,0,0.00032914,-2.4781e-05,1.4887e-19,0,0.36259,-0.0046699,0.012953,0.01444,1,0.891,1,0.0125,0
0.0027852,0.00014373,0.92525,0.000892,0,0.00033125,-2.4863e-05,1.4717e-19,0,0.36534,-0.004697,0.013054,0.01455,1,0.892,1,0.0125,0
0.0027999,0.00014436,0.9253,0.000893,0,0.00033294,-2.4945e-05,1.4844e-19,0,0.36736,-0.0047241,0.013126,0.01463,1,0.893,1,0.0125,0
0.0028105,0.00014498,0.92535,0.000894,0,0.00033434,-2.5026e-05,1.494e-19,0,0.36886,-0.0047511,0.013178,0.01469,1,0.894,1,0.0125,0
0.0028182,0.00014559,0.9254,0.000895,0,0.00033553,-2.5108e-05,1.4971e-19,0,0.37,-0.0047779,0.013215,0.014735,1,0.895,1,0.0125,0
0.0028239,0.00014621,0.92545,0.000896,0,0.00033658,-2.519e-05,1.5056e-19,0,0.37088,-0.0048048,0.013242,0.01477,1,0.896,1,0.0125,0
0.0028282,0.00014683,0.9255,0.000897,0,0.00033752,-2.5273e-05,1.5035e-19,0,0.37157,-0.0048315,0.013262,0.014798,1,0.897,1,0.0125,0
0.0026994,0.00014752,0.92555,0.000898,0,0.00032864,-2.5369e-05,1.512e-19,0,0.35534,-0.0048633,0.012602,0.014148,1,0.898,1,0.0125,0
0.0027399,0.00014823,0.9256,0.000899,0,0.00033222,-2.5456e-05,1.5236e-19,0,0.36063,-0.0048913,0.012804,0.014359,1,0.899,1,0.0125,0
0.0027689,0.00014888,0.92564,0.0009,0,0.00033497,-2.5541e-05,1.5162e-19,0,0.36445,-0.0049201,0.012948,0.014512,1,0.9,1,0.0125,0
0.0027897,0.0001495,0.92569,0.000901,0,0.00033712,-2.5626e-05,1.5437e-19,0,0.36724,-0.0049491,0.013051,0.014623,1,0.901,1,0.0125,0
0.0028049,0.00015012,0.92573,0.000902,0,0.00033885,-2.571e-05,1.5268e-19,0,0.36933,-0.0049785,0.013125,0.014706,1,0.902,1,0.0125,0
0.0028159,0.00015074,0.92578,0.000903,0,0.00034027,-2.5795e-05,1.5374e-19,0,0.37087,-0.0050078,0.013179,0.014767,1,0.903,1,0.0125,0
0.0028239,0.00015135,0.92582,0.000904,0,0.00034147,-2.5879e-05,1.5416e-19,0,0.37204,-0.0050369,0.013217,0.014814,1,0.904,1,0.0125,0
0.0028298,0.00015197,0.92586,0.000905,0,0.00034252,-2.5964e-05,1.5405e-19,0,0.37293,-0.0050658,0.013245,0.014849,1,0.905,1,0.0125,0
0.0027032,0.00015267,0.9259,0.000906,0,0.0003337,-2.6063e-05,1.5543e-19,0,0.35695,-0.0051006,0.012595,0.01421,1,0.906,1,0.0125,0
0.0027443,0.0001534,0.92593,0.000907,0,0.00033731,-2.6151e-05,1.5427e-19,0,0.3623,-0.0051311,0.012799,0.014423,1,0.907,1,0.0125,0
0.0027737,0.00015407,0.92597,0.000908,0,0.00034006,-2.6238e-05,1.5628e-19,0,0.36617,-0.0051623,0.012944,0.014578,1,0.908,1,0.0125,0
0.0027951,0.00015472,0.92599,0.000909,0,0.00034221,-2.6325e-05,1.5755e-19,0,0.36902,-0.0051944,0.01305,0.014692,1,0.909,1,0.0125,0
0.0028104,0.00015537,0.92602,0.00091,0,0.00034391,-2.6412e-05,1.5776e-19,0,0.37112,-0.0052263,0.013124,0.014775,1,0.91,1,0.0125,0
0.0028218,0.00015602,0.92604,0.000911,0,0.0003453,-2.6498e-05,1.5554e-19,0,0.3727,-0.0052587,0.013179,0.014838,1,0.911,1,0.0125,0
0.0028301,0.00015668,0.92607,0.000912,0,0.00034645,-2.6585e-05,1.584e-19,0,0.37388,-0.0052909,0.013217,0.014884,1,0.912,1,0.0125,0
0.0027054,0.00015741,0.92609,0.000913,0,0.00033771,-2.6686e-05,1.5776e-19,0,0.35812,-0.0053287,0.012576,0.014254,1,0.913,1,0.0125,0
0.0027471,0.00015815,0.92611,0.000914,0,0.00034133,-2.6776e-05,1.5861e-19,0,0.36355,-0.0053616,0.012783,0.014471,1,0.914,1,0.0125,0
0.0027771,0.00015885,0.92613,0.000915,0,0.00034409,-2.6865e-05,1.5882e-19,0,0.36747,-0.0053953,0.01293,0.014627,1,0.915,1,0.0125,0
0.0027985,0.00015951,0.92615,0.000916,0,0.00034623,-2.6954e-05,1.6136e-19,0,0.37033,-0.0054291,0.013035,0.014741,1,0.916,1,0.0125,0
0.002814,0.00016016,0.92617,0.000917,0,0.00034792,-2.7042e-05,1.6094e-19,0,0.37243,-0.0054628,0.01311,0.014825,1,0.917,1,0.0125,0
0.0028252,0.0001608,0.92619,0.000918,0,0.00034929,-2.713e-05,1.6136e-19,0,0.37398,-0.0054962,0.013163,0.014886,1,0.918,1,0.0125,0
0.0028333,0.00016145,0.92622,0.000919,0,0.00035044,-2.7219e-05,1.6252e-19,0,0.37514,-0.0055295,0.013201,0.014932,1,0.919,1,0.0125,0
0.0027088,0.00016217,0.92624,0.00092,0,0.00034169,-2.7322e-05,1.6305e-19,0,0.35939,-0.0055684,0.01256,0.014302,1,0.92,1,0.0125,0
0.0027503,0.0001629,0.92626,0.000921,0,0.00034531,-2.7413e-05,1.6178e-19,0,0.36478,-0.0056022,0.012765,0.014518,1,0.921,1,0.0125,0
0.0027801,0.00016359,0.92628,0.000922,0,0.00034806,-2.7504e-05,1.6485e-19,0,0.36869,-0.0056368,0.012912,0.014673,1,0.922,1,0.0125,0
0.0028015,0.00016424,0.9263,0.000923,0,0.00035019,-2.7594e-05,1.6411e-19,0,0.37154,-0.0056714,0.013017,0.014787,1,0.923,1,0.0125,0
0.0028169,0.00016488,0.92632,0.000924,0,0.00035188,-2.7684e-05,1.657e-19,0,0.37362,-0.0057059,0.013091,0.01487,1,0.924,1,0.0125,0
0.002828,0.00016551,0.92634,0.000925,0,0.00035326,-2.7774e-05,1.6454e-19,0,0.37516,-0.0057401,0.013144,0.014931,1,0.925,1,0.0125,0
0.0028361,0.00016615,0.92637,0.000926,0,0.00035441,-2.7863e-05,1.6454e-19,0,0.37631,-0.0057741,0.013181,0.014977,1,0.926,1,0.0125,0
0.0027118,0.00016685,0.92639,0.000927,0,0.00034565,-2.7968e-05,1.6538e-19,0,0.36058,-0.0058139,0.012541,0.014347,1,0.927,1,0.0125,0
0.0027532,0.00016758,0.92641,0.000928,0,0.00034926,-2.8061e-05,1.6983e-19,0,0.36596,-0.0058484,0.012745,0.014562,1,0.928,1,0.0125,0
0.0027828,0.00016825,0.92643,0.000929,0,0.00035202,-2.8153e-05,1.6697e-19,0,0.36985,-0.0058836,0.012891,0.014717,1,0.929,1,0.0125,0
0.0028041,0.00016889,0.92645,0.00093,0,0.00035415,-2.8245e-05,1.6739e-19,0,0.37268,-0.0059188,0.012995,0.01483,1,0.93,1,0.0125,0
0.0028195,0.00016952,0.92647,0.000931,0,0.00035584,-2.8336e-05,1.7047e-19,0,0.37476,-0.0059539,0.013069,0.014913,1,0.931,1,0.0125,0
0.0028306,0.00017014,0.9265,0.000932,0,0.00035722,-2.8427e-05,1.6814e-19,0,0.37629,-0.0059887,0.013122,0.014974,1,0.932,1,0.0125,0
0.0028387,0.00017077,0.92652,0.000933,0,0.00035837,-2.8517e-05,1.6856e-19,0,0.37744,-0.0060232,0.013159,0.015019,1,0.933,1,0.0125,0
0.0027147,0.00017146,0.92654,0.000934,0,0.00034961,-2.8623e-05,1.7131e-19,0,0.36173,-0.0060636,0.012519,0.014391,1,0.934,1,0.0125,0
0.0027559,0.00017217,0.92656,0.000935,0,0.00035322,-2.8718e-05,1.7047e-19,0,0.36708,-0.0060986,0.012723,0.014604,1,0.935,1,0.0125,0
0.0027854,0.00017283,0.92658,0.000936,0,0.00035597,-2.8811e-05,1.7047e-19,0,0.37095,-0.0061342,0.012868,0.014759,1,0.936,1,0.0125,0
0.0028067,0.00017347,0.9266,0.000937,0,0.00035811,-2.8903e-05,1.7322e-19,0,0.37378,-0.0061699,0.012972,0.014871,1,0.937,1,0.0125,0
0.002822,0.00017408,0.92663,0.000938,0,0.0003598,-2.8995e-05,1.7237e-19,0,0.37584,-0.0062054,0.013046,0.014954,1,0.938,1,0.0125,0
0.0028331,0.0001747,0.92665,0.000939,0,0.00036118,-2.9087e-05,1.7385e-19,0,0.37737,-0.0062406,0.013098,0.015014,1,0.939,1,0.0125,0
0.0027118,0.00017537,0.92667,0.00094,0,0.0003526,-2.9194e-05,1.7174e-19,0,0.36199,-0.0062817,0.012472,0.014399,1,0.94,1,0.0125,0
0.0027543,0.00017607,0.92669,0.000941,0,0.00035631,-2.9289e-05,1.747e-19,0,0.36751,-0.0063171,0.012682,0.014619,1,0.941,1,0.0125,0
0.0027848,0.00017672,0.92671,0.000942,0,0.00035914,-2.9383e-05,1.7682e-19,0,0.37151,-0.0063531,0.012833,0.014779,1,0.942,1,0.0125,0
0.0028068,0.00017734,0.92673,0.000943,0,0.00036134,-2.9476e-05,1.7322e-19,0,0.37442,-0.0063891,0.01294,0.014895,1,0.943,1,0.0125,0
0.0028226,0.00017794,0.92675,0.000944,0,0.00036307,-2.9569e-05,1.7597e-19,0,0.37655,-0.0064248,0.013016,0.01498,1,0.944,1,0.0125,0
0.0028341,0.00017854,0.92678,0.000945,0,0.00036448,-2.9662e-05,1.7788e-19,0,0.37812,-0.0064601,0.01307,0.015042,1,0.945,1,0.0125,0
0.0027133,0.0001792,0.9268,0.000946,0,0.00035592,-2.9769e-05,1.7597e-19,0,0.36281,-0.0065014,0.012447,0.014429,1,0.946,1,0.0125,0
0.0027559,0.00017989,0.92682,0.000947,0,0.00035965,-2.9864e-05,1.7661e-19,0,0.36833,-0.0065369,0.012657,0.01465,1,0.947,1,0.0125,0
0.0027865,0.00018052,0.92684,0.000948,0,0.00036249,-2.9959e-05,1.7904e-19,0,0.37233,-0.0065729,0.012808,0.014809,1,0.948,1,0.0125,0
0.0028085,0.00018113,0.92686,0.000949,0,0.00036469,-3.0053e-05,1.7809e-19,0,0.37525,-0.0066089,0.012916,0.014926,1,0.949,1,0.0125,0
0.0028244,0.00018172,0.92688,0.00095,0,0.00036643,-3.0146e-05,1.8127e-19,0,0.37738,-0.0066446,0.012992,0.015011,1,0.95,1,0.0125,0
0.0028359,0.00018231,0.9269,0.000951,0,0.00036785,-3.0239e-05,1.7978e-19,0,0.37896,-0.00668,0.013047,0.015073,1,0.951,1,0.0125,0
0.0027153,0.00018296,0.92693,0.000952,0,0.00035929,-3.0347e-05,1.8105e-19,0,0.36366,-0.0067212,0.012424,0.014461,1,0.952,1,0.0125,0
0.002758,0.00018365,0.92695,0.000953,0,0.00036301,-3.0443e-05,1.8063e-19,0,0.36919,-0.0067572,0.012635,0.014682,1,0.953,1,0.0125,0
0.0027886,0.00018429,0.92696,0.000954,0,0.00036585,-3.0538e-05,1.8412e-19,0,0.37319,-0.0067938,0.012785,0.014842,1,0.954,1,0.0125,0
0.0028106,0.0001849,0.92698,0.000955,0,0.00036804,-3.0632e-05,1.8328e-19,0,0.37611,-0.0068303,0.012893,0.014958,1,0.955,1,0.0125,0
0.0028266,0.0001855,0.927,0.000956,0,0.00036977,-3.0726e-05,1.8656e-19,0,0.37824,-0.0068665,0.012969,0.015043,1,0.956,1,0.0125,0
0.0028381,0.00018609,0.92701,0.000957,0,0.00037118,-3.082e-05,1.8232e-19,0,0.37981,-0.0069024,0.013024,0.015105,1,0.957,1,0.0125,0
0.0027177,0.00018675,0.92703,0.000958,0,0.0003626,-3.0929e-05,1.8232e-19,0,0.36453,-0.0069444,0.012401,0.014494,1,0.958,1,0.0125,0
0.0027601,0.00018744,0.92705,0.000959,0,0.00036631,-3.1025e-05,1.8444e-19,0,0.37002,-0.0069804,0.012611,0.014713,1,0.959,1,0.0125,0
0.0027905,0.00018806,0.92707,0.00096,0,0.00036914,-3.1121e-05,1.8741e-19,0,0.374,-0.0070169,0.012761,0.014872,1,0.96,1,0.0125,0
0.0028126,0.00018868,0.92708,0.000961,0,0.00037133,-3.1216e-05,1.8741e-19,0,0.37691,-0.0070541,0.012868,0.014988,1,0.961,1,0.0125,0
0.0028286,0.00018929,0.92709,0.000962,0,0.00037305,-3.131e-05,1.8762e-19,0,0.37904,-0.0070909,0.012944,0.015073,1,0.962,1,0.0125,0
0.0028401,0.00018989,0.92711,0.000963,0,0.00037444,-3.1404e-05,1.8846e-19,0,0.38061,-0.0071274,0.012998,0.015135,1,0.963,1,0.0125,0
0.00272,0.00019056,0.92712,0.000964,0,0.00036585,-3.1514e-05,1.8762e-19,0,0.36534,-0.0071701,0.012376,0.014524,1,0.964,1,0.0125,0
0.0027622,0.00019124,0.92713,0.000965,0,0.00036954,-3.1611e-05,1.8804e-19,0,0.37081,-0.0072068,0.012585,0.014742,1,0.965,1,0.0125,0
0.0027928,0.00019189,0.92714,0.000966,0,0.00037235,-3.1707e-05,1.9143e-19,0,0.37479,-0.0072445,0.012735,0.014901,1,0.966,1,0.0125,0
0.0028148,0.00019252,0.92715,0.000967,0,0.00037452,-3.1803e-05,1.8921e-19,0,0.37769,-0.0072823,0.012841,0.015017,1,0.967,1,0.0125,0
0.0028306,0.00019313,0.92716,0.000968,0,0.00037623,-3.1898e-05,1.9143e-19,0,0.37981,-0.0073197,0.012917,0.015101,1,0.968,1,0.0125,0
0.0028421,0.00019374,0.92717,0.000969,0,0.0003776,-3.1993e-05,1.8868e-19,0,0.38136,-0.0073569,0.012971,0.015163,1,0.969,1,0.0125,0
0.0027222,0.00019443,0.92718,0.00097,0,0.00036898,-3.2103e-05,1.9143e-19,0,0.36611,-0.007401,0.012349,0.014552,1,0.97,1,0.0125,0
0.0027644,0.00019514,0.92718,0.000971,0,0.00037266,-3.2201e-05,1.9312e-19,0,0.37157,-0.0074388,0.012557,0.01477,1,0.971,1,0.0125,0
0.0027947,0.00019579,0.92719,0.000972,0,0.00037544,-3.2298e-05,1.9185e-19,0,0.37552,-0.0074771,0.012706,0.014928,1,0.972,1,0.0125,0
0.0028166,0.00019642,0.92719,0.000973,0,0.00037759,-3.2395e-05,1.9143e-19,0,0.3784,-0.0075155,0.012811,0.015043,1,0.973,1,0.0125,0
0.0028324,0.00019704,0.9272,0.000974,0,0.00037927,-3.249e-05,1.9164e-19,0,0.3805,-0.0075536,0.012886,0.015126,1,0.974,1,0.0125,0
0.0028438,0.00019765,0.9272,0.000975,0,0.00038063,-3.2586e-05,1.9694e-19,0,0.38204,-0.0075915,0.012939,0.015188,1,0.975,1,0.0125,0
0.0027237,0.00019834,0.92721,0.000976,0,0.000372,-3.2697e-05,1.9482e-19,0,0.36676,-0.0076357,0.012316,0.014576,1,0.976,1,0.0125,0
0.0027657,0.00019904,0.92721,0.000977,0,0.00037566,-3.2796e-05,1.9641e-19,0,0.37219,-0.0076736,0.012524,0.014793,1,0.977,1,0.0125,0
0.002796,0.00019969,0.92722,0.000978,0,0.00037843,-3.2893e-05,1.9524e-19,0,0.37613,-0.0077121,0.012671,0.01495,1,0.978,1,0.0125,0
0.0028178,0.00020031,0.92722,0.000979,0,0.00038057,-3.299e-05,1.9757e-19,0,0.37899,-0.0077506,0.012777,0.015064,1,0.979,1,0.0125,0
0.0028335,0.00020092,0.92723,0.00098,0,0.00038226,-3.3086e-05,1.9821e-19,0,0.38108,-0.0077888,0.012851,0.015147,1,0.98,1,0.0125,0
0.0028448,0.00020153,0.92723,0.000981,0,0.00038361,-3.3182e-05,1.999e-19,0,0.38261,-0.0078266,0.012903,0.015208,1,0.981,1,0.0125,0
0.0027248,0.0002022,0.92724,0.000982,0,0.00037497,-3.3294e-05,2.017e-19,0,0.36733,-0.007871,0.012281,0.014597,1,0.982,1,0.0125,0
0.0027667,0.0002029,0.92725,0.000983,0,0.00037863,-3.3393e-05,2.0202e-19,0,0.37275,-0.0079089,0.012487,0.014813,1,0.983,1,0.0125,0
0.0027969,0.00020354,0.92725,0.000984,0,0.0003814,-3.3491e-05,1.9874e-19,0,0.37668,-0.0079474,0.012635,0.01497,1,0.984,1,0.0125,0
0.0028187,0.00020415,0.92726,0.000985,0,0.00038354,-3.3588e-05,2.0054e-19,0,0.37954,-0.0079858,0.01274,0.015084,1,0.985,1,0.0125,0
0.0028344,0.00020475,0.92726,0.000986,0,0.00038522,-3.3685e-05,2.0138e-19,0,0.38162,-0.008024,0.012814,0.015167,1,0.986,1,0.0125,0
0.0028457,0.00020535,0.92727,0.000987,0,0.00038658,-3.3782e-05,2.0011e-19,0,0.38315,-0.0080618,0.012867,0.015228,1,0.987,1,0.0125,0
0.0027257,0.00020602,0.92727,0.000988,0,0.00037793,-3.3894e-05,1.9884e-19,0,0.36787,-0.0081062,0.012244,0.014616,1,0.988,1,0.0125,0
0.0027676,0.00020671,0.92728,0.000989,0,0.00038159,-3.3993e-05,2.0318e-19,0,0.37328,-0.0081441,0.01245,0.014832,1,0.989,1,0.0125,0
0.0027978,0.00020734,0.92728,0.00099,0,0.00038436,-3.4091e-05,2.0308e-19,0,0.37721,-0.0081825,0.012598,0.014989,1,0.99,1,0.0125,0
0.0028195,0.00020795,0.92729,0.000991,0,0.0003865,-3.4189e-05,2.0297e-19,0,0.38006,-0.0082208,0.012703,0.015102,1,0.991,1,0.0125,0
0.0028352,0.00020854,0.9273,0.000992,0,0.00038818,-3.4286e-05,2.0318e-19,0,0.38213,-0.0082589,0.012777,0.015185,1,0.992,1,0.0125,0
0.0028465,0.00020913,0.9273,0.000993,0,0.00038953,-3.4383e-05,2.0265e-19,0,0.38366,-0.0082966,0.012829,0.015246,1,0.993,1,0.0125,0
0.0027266,0.0002098,0.92731,0.000994,0,0.00038089,-3.4496e-05,2.0858e-19,0,0.36838,-0.0083409,0.012206,0.014634,1,0.994,1,0.0125,0
0.0027684,0.00021047,0.92731,0.000995,0,0.00038454,-3.4595e-05,2.0477e-19,0,0.37378,-0.0083786,0.012413,0.01485,1,0.995,1,0.0125,0
0.0027986,0.0002111,0.92732,0.000996,0,0.00038731,-3.4694e-05,2.0657e-19,0,0.3777,-0.0084169,0.01256,0.015006,1,0.996,1,0.0125,0
0.0028203,0.0002117,0.92732,0.000997,0,0.00038945,-3.4792e-05,2.0752e-19,0,0.38055,-0.0084551,0.012665,0.01512,1,0.997,1,0.0125,0
0.002836,0.00021228,0.92733,0.000998,0,0.00039113,-3.4889e-05,2.0541e-19,0,0.38262,-0.008493,0.012739,0.015202,1,0.998,1,0.0125,0
0.0028473,0.00021287,0.92733,0.000999,0,0.00039248,-3.4986e-05,2.0816e-19,0,0.38414,-0.0085306,0.012791,0.015263,1,0.999,1,0.0125,0
0.0027273,0.00021352,0.92734,0.001,0,0.00038384,-3.5099e-05,2.0816e-19,0,0.36886,-0.0085747,0.012168,0.014651,1,1,1,0.0125,0
