<?xml version="1.0"?>
<!-- Time step: 1 | Time: 1.000000000000e+01 -->
<VTKFile type="UnstructuredGrid" version="0.1" byte_order="LittleEndian">
  <UnstructuredGrid>
    <Piece NumberOfPoints="121" NumberOfCells="100">
      <Points>
        <DataArray type="Float64" NumberOfComponents="3" format="ascii">
          0.000000000000e+00 0.000000000000e+00 0.000000000000e+00
          1.000000000000e-01 0.000000000000e+00 0.000000000000e+00
          2.000000000000e-01 0.000000000000e+00 0.000000000000e+00
          3.000000000000e-01 0.000000000000e+00 0.000000000000e+00
          4.000000000000e-01 0.000000000000e+00 0.000000000000e+00
          5.000000000000e-01 0.000000000000e+00 0.000000000000e+00
          6.000000000000e-01 0.000000000000e+00 0.000000000000e+00
          7.000000000000e-01 0.000000000000e+00 0.000000000000e+00
          8.000000000000e-01 0.000000000000e+00 0.000000000000e+00
          9.000000000000e-01 0.000000000000e+00 0.000000000000e+00
          1.000000000000e+00 0.000000000000e+00 0.000000000000e+00
          0.000000000000e+00 1.000000000000e-01 0.000000000000e+00
          1.000000000000e-01 1.000000000000e-01 0.000000000000e+00
          2.000000000000e-01 1.000000000000e-01 0.000000000000e+00
          3.000000000000e-01 1.000000000000e-01 0.000000000000e+00
          4.000000000000e-01 1.000000000000e-01 0.000000000000e+00
          5.000000000000e-01 1.000000000000e-01 0.000000000000e+00
          6.000000000000e-01 1.000000000000e-01 0.000000000000e+00
          7.000000000000e-01 1.000000000000e-01 0.000000000000e+00
          8.000000000000e-01 1.000000000000e-01 0.000000000000e+00
          9.000000000000e-01 1.000000000000e-01 0.000000000000e+00
          1.000000000000e+00 1.000000000000e-01 0.000000000000e+00
          0.000000000000e+00 2.000000000000e-01 0.000000000000e+00
          1.000000000000e-01 2.000000000000e-01 0.000000000000e+00
          2.000000000000e-01 2.000000000000e-01 0.000000000000e+00
          3.000000000000e-01 2.000000000000e-01 0.000000000000e+00
          4.000000000000e-01 2.000000000000e-01 0.000000000000e+00
          5.000000000000e-01 2.000000000000e-01 0.000000000000e+00
          6.000000000000e-01 2.000000000000e-01 0.000000000000e+00
          7.000000000000e-01 2.000000000000e-01 0.000000000000e+00
          8.000000000000e-01 2.000000000000e-01 0.000000000000e+00
          9.000000000000e-01 2.000000000000e-01 0.000000000000e+00
          1.000000000000e+00 2.000000000000e-01 0.000000000000e+00
          0.000000000000e+00 3.000000000000e-01 0.000000000000e+00
          1.000000000000e-01 3.000000000000e-01 0.000000000000e+00
          2.000000000000e-01 3.000000000000e-01 0.000000000000e+00
          3.000000000000e-01 3.000000000000e-01 0.000000000000e+00
          4.000000000000e-01 3.000000000000e-01 0.000000000000e+00
          5.000000000000e-01 3.000000000000e-01 0.000000000000e+00
          6.000000000000e-01 3.000000000000e-01 0.000000000000e+00
          7.000000000000e-01 3.000000000000e-01 0.000000000000e+00
          8.000000000000e-01 3.000000000000e-01 0.000000000000e+00
          9.000000000000e-01 3.000000000000e-01 0.000000000000e+00
          1.000000000000e+00 3.000000000000e-01 0.000000000000e+00
          0.000000000000e+00 4.000000000000e-01 0.000000000000e+00
          1.000000000000e-01 4.000000000000e-01 0.000000000000e+00
          2.000000000000e-01 4.000000000000e-01 0.000000000000e+00
          3.000000000000e-01 4.000000000000e-01 0.000000000000e+00
          4.000000000000e-01 4.000000000000e-01 0.000000000000e+00
          5.000000000000e-01 4.000000000000e-01 0.000000000000e+00
          6.000000000000e-01 4.000000000000e-01 0.000000000000e+00
          7.000000000000e-01 4.000000000000e-01 0.000000000000e+00
          8.000000000000e-01 4.000000000000e-01 0.000000000000e+00
          9.000000000000e-01 4.000000000000e-01 0.000000000000e+00
          1.000000000000e+00 4.000000000000e-01 0.000000000000e+00
          0.000000000000e+00 5.000000000000e-01 0.000000000000e+00
          1.000000000000e-01 5.000000000000e-01 0.000000000000e+00
          2.000000000000e-01 5.000000000000e-01 0.000000000000e+00
          3.000000000000e-01 5.000000000000e-01 0.000000000000e+00
          4.000000000000e-01 5.000000000000e-01 0.000000000000e+00
          5.000000000000e-01 5.000000000000e-01 0.000000000000e+00
          6.000000000000e-01 5.000000000000e-01 0.000000000000e+00
          7.000000000000e-01 5.000000000000e-01 0.000000000000e+00
          8.000000000000e-01 5.000000000000e-01 0.000000000000e+00
          9.000000000000e-01 5.000000000000e-01 0.000000000000e+00
          1.000000000000e+00 5.000000000000e-01 0.000000000000e+00
          0.000000000000e+00 6.000000000000e-01 0.000000000000e+00
          1.000000000000e-01 6.000000000000e-01 0.000000000000e+00
          2.000000000000e-01 6.000000000000e-01 0.000000000000e+00
          3.000000000000e-01 6.000000000000e-01 0.000000000000e+00
          4.000000000000e-01 6.000000000000e-01 0.000000000000e+00
          5.000000000000e-01 6.000000000000e-01 0.000000000000e+00
          6.000000000000e-01 6.000000000000e-01 0.000000000000e+00
          7.000000000000e-01 6.000000000000e-01 0.000000000000e+00
          8.000000000000e-01 6.000000000000e-01 0.000000000000e+00
          9.000000000000e-01 6.000000000000e-01 0.000000000000e+00
          1.000000000000e+00 6.000000000000e-01 0.000000000000e+00
          0.000000000000e+00 7.000000000000e-01 0.000000000000e+00
          1.000000000000e-01 7.000000000000e-01 0.000000000000e+00
          2.000000000000e-01 7.000000000000e-01 0.000000000000e+00
          3.000000000000e-01 7.000000000000e-01 0.000000000000e+00
          4.000000000000e-01 7.000000000000e-01 0.000000000000e+00
          5.000000000000e-01 7.000000000000e-01 0.000000000000e+00
          6.000000000000e-01 7.000000000000e-01 0.000000000000e+00
          7.000000000000e-01 7.000000000000e-01 0.000000000000e+00
          8.000000000000e-01 7.000000000000e-01 0.000000000000e+00
          9.000000000000e-01 7.000000000000e-01 0.000000000000e+00
          1.000000000000e+00 7.000000000000e-01 0.000000000000e+00
          0.000000000000e+00 8.000000000000e-01 0.000000000000e+00
          1.000000000000e-01 8.000000000000e-01 0.000000000000e+00
          2.000000000000e-01 8.000000000000e-01 0.000000000000e+00
          3.000000000000e-01 8.000000000000e-01 0.000000000000e+00
          4.000000000000e-01 8.000000000000e-01 0.000000000000e+00
          5.000000000000e-01 8.000000000000e-01 0.000000000000e+00
          6.000000000000e-01 8.000000000000e-01 0.000000000000e+00
          7.000000000000e-01 8.000000000000e-01 0.000000000000e+00
          8.000000000000e-01 8.000000000000e-01 0.000000000000e+00
          9.000000000000e-01 8.000000000000e-01 0.000000000000e+00
          1.000000000000e+00 8.000000000000e-01 0.000000000000e+00
          0.000000000000e+00 9.000000000000e-01 0.000000000000e+00
          1.000000000000e-01 9.000000000000e-01 0.000000000000e+00
          2.000000000000e-01 9.000000000000e-01 0.000000000000e+00
          3.000000000000e-01 9.000000000000e-01 0.000000000000e+00
          4.000000000000e-01 9.000000000000e-01 0.000000000000e+00
          5.000000000000e-01 9.000000000000e-01 0.000000000000e+00
          6.000000000000e-01 9.000000000000e-01 0.000000000000e+00
          7.000000000000e-01 9.000000000000e-01 0.000000000000e+00
          8.000000000000e-01 9.000000000000e-01 0.000000000000e+00
          9.000000000000e-01 9.000000000000e-01 0.000000000000e+00
          1.000000000000e+00 9.000000000000e-01 0.000000000000e+00
          0.000000000000e+00 1.000000000000e+00 0.000000000000e+00
          1.000000000000e-01 1.000000000000e+00 0.000000000000e+00
          2.000000000000e-01 1.000000000000e+00 0.000000000000e+00
          3.000000000000e-01 1.000000000000e+00 0.000000000000e+00
          4.000000000000e-01 1.000000000000e+00 0.000000000000e+00
          5.000000000000e-01 1.000000000000e+00 0.000000000000e+00
          6.000000000000e-01 1.000000000000e+00 0.000000000000e+00
          7.000000000000e-01 1.000000000000e+00 0.000000000000e+00
          8.000000000000e-01 1.000000000000e+00 0.000000000000e+00
          9.000000000000e-01 1.000000000000e+00 0.000000000000e+00
          1.000000000000e+00 1.000000000000e+00 0.000000000000e+00
        </DataArray>
      </Points>
      <Cells>
        <DataArray type="Int64" Name="connectivity" format="ascii">
          0 1 12 11 
          1 2 13 12 
          2 3 14 13 
          3 4 15 14 
          4 5 16 15 
          5 6 17 16 
          6 7 18 17 
          7 8 19 18 
          8 9 20 19 
          9 10 21 20 
          11 12 23 22 
          12 13 24 23 
          13 14 25 24 
          14 15 26 25 
          15 16 27 26 
          16 17 28 27 
          17 18 29 28 
          18 19 30 29 
          19 20 31 30 
          20 21 32 31 
          22 23 34 33 
          23 24 35 34 
          24 25 36 35 
          25 26 37 36 
          26 27 38 37 
          27 28 39 38 
          28 29 40 39 
          29 30 41 40 
          30 31 42 41 
          31 32 43 42 
          33 34 45 44 
          34 35 46 45 
          35 36 47 46 
          36 37 48 47 
          37 38 49 48 
          38 39 50 49 
          39 40 51 50 
          40 41 52 51 
          41 42 53 52 
          42 43 54 53 
          44 45 56 55 
          45 46 57 56 
          46 47 58 57 
          47 48 59 58 
          48 49 60 59 
          49 50 61 60 
          50 51 62 61 
          51 52 63 62 
          52 53 64 63 
          53 54 65 64 
          55 56 67 66 
          56 57 68 67 
          57 58 69 68 
          58 59 70 69 
          59 60 71 70 
          60 61 72 71 
          61 62 73 72 
          62 63 74 73 
          63 64 75 74 
          64 65 76 75 
          66 67 78 77 
          67 68 79 78 
          68 69 80 79 
          69 70 81 80 
          70 71 82 81 
          71 72 83 82 
          72 73 84 83 
          73 74 85 84 
          74 75 86 85 
          75 76 87 86 
          77 78 89 88 
          78 79 90 89 
          79 80 91 90 
          80 81 92 91 
          81 82 93 92 
          82 83 94 93 
          83 84 95 94 
          84 85 96 95 
          85 86 97 96 
          86 87 98 97 
          88 89 100 99 
          89 90 101 100 
          90 91 102 101 
          91 92 103 102 
          92 93 104 103 
          93 94 105 104 
          94 95 106 105 
          95 96 107 106 
          96 97 108 107 
          97 98 109 108 
          99 100 111 110 
          100 101 112 111 
          101 102 113 112 
          102 103 114 113 
          103 104 115 114 
          104 105 116 115 
          105 106 117 116 
          106 107 118 117 
          107 108 119 118 
          108 109 120 119 
        </DataArray>
        <DataArray type="Int64" Name="offsets" format="ascii">
          4 8 12 16 20 24 28 32 36 40 44 48 52 56 60 64 68 72 76 80 84 88 92 96 100 104 108 112 116 120 124 128 132 136 140 144 148 152 156 160 164 168 172 176 180 184 188 192 196 200 204 208 212 216 220 224 228 232 236 240 244 248 252 256 260 264 268 272 276 280 284 288 292 296 300 304 308 312 316 320 324 328 332 336 340 344 348 352 356 360 364 368 372 376 380 384 388 392 396 400 
        </DataArray>
        <DataArray type="UInt8" Name="types" format="ascii">
          9 9 9 9 9 9 9 9 9 9 9 9 9 9 9 9 9 9 9 9 9 9 9 9 9 9 9 9 9 9 9 9 9 9 9 9 9 9 9 9 9 9 9 9 9 9 9 9 9 9 9 9 9 9 9 9 9 9 9 9 9 9 9 9 9 9 9 9 9 9 9 9 9 9 9 9 9 9 9 9 9 9 9 9 9 9 9 9 9 9 9 9 9 9 9 9 9 9 9 9 
        </DataArray>
      </Cells>
      <PointData Scalars="PRESSURE1">
        <DataArray type="Float64" Name="PRESSURE1" format="ascii">
          1.254727200598e-03 1.137802057867e-03 1.014245108734e-03 8.889628923977e-04 7.628391086934e-04 6.362163648857e-04 5.092709865773e-04 3.821109322308e-04 2.548103302164e-04 1.274248318442e-04 0.000000000000e+00 1.265093373618e-03 1.139756193365e-03 1.015061587252e-03 8.894066519219e-04 7.631145494001e-04 6.363982611538e-04 5.093933529620e-04 3.821916395098e-04 2.548595090303e-04 1.274481437082e-04 0.000000000000e+00 1.269941815932e-03 1.143078388378e-03 1.016799719123e-03 8.904490776687e-04 7.637917671824e-04 6.368557140183e-04 5.097046518997e-04 3.823981667947e-04 2.549857281313e-04 1.275080579145e-04 0.000000000000e+00 1.273249983563e-03 1.145863399523e-03 1.018810336919e-03 8.918276427244e-04 7.647480003419e-04 6.375234751971e-04 5.101668858686e-04 3.827075182507e-04 2.551756184902e-04 1.275983802093e-04 0.000000000000e+00 1.275935802181e-03 1.148293542814e-03 1.020791422587e-03 8.933372357946e-04 7.658587868271e-04 6.383239465534e-04 5.107301334922e-04 3.830876542403e-04 2.554099453249e-04 1.277100586145e-04 0.000000000000e+00 1.278388913824e-03 1.150568975817e-03 1.022729981668e-03 8.948814236256e-04 7.670313486715e-04 6.391841614102e-04 5.113411616462e-04 3.835020478229e-04 2.556660165983e-04 1.278322418868e-04 0.000000000000e+00 1.280863936514e-03 1.152859639164e-03 1.024673549688e-03 8.964227717540e-04 7.681977057862e-04 6.400380027796e-04 5.119469769054e-04 3.839126752649e-04 2.559196963090e-04 1.279532743726e-04 0.000000000000e+00 1.283626642265e-03 1.155339252061e-03 1.026665668147e-03 8.979183717498e-04 7.692868316679e-04 6.408184060131e-04 5.124944873623e-04 3.842816579985e-04 2.561470035509e-04 1.280615871045e-04 0.000000000000e+00 1.287115499446e-03 1.158217376679e-03 1.028670647529e-03 8.992519660352e-04 7.701988768645e-04 6.414507618906e-04 5.129306592554e-04 3.845730795157e-04 2.563257663266e-04 1.281466035964e-04 0.000000000000e+00 1.292430954175e-03 1.161654902468e-03 1.030282239694e-03 9.001964228010e-04 7.708052681315e-04 6.418581339127e-04 5.132071661456e-04 3.847563312451e-04 2.564377317934e-04 1.281997562683e-04 0.000000000000e+00 1.304751683834e-03 1.162777556242e-03 1.030840439970e-03 9.004954705836e-04 7.709910314472e-04 6.419808118462e-04 5.132897234364e-04 3.848108152734e-04 2.564709586763e-04 1.282155173359e-04 0.000000000000e+00 
        </DataArray>
        <DataArray type="Float64" Name="TEMPERATURE1" format="ascii">
          5.231500000000e+02 4.690621114382e+02 4.155371161576e+02 3.625107820245e+02 3.099194753187e+02 2.577000843702e+02 2.057899438226e+02 1.541267594327e+02 1.026485333142e+02 5.129348953832e+01 0.000000000000e+00 5.231500000000e+02 4.690621114382e+02 4.155371161576e+02 3.625107820245e+02 3.099194753187e+02 2.577000843702e+02 2.057899438226e+02 1.541267594327e+02 1.026485333142e+02 5.129348953832e+01 0.000000000000e+00 5.231500000000e+02 4.690621114382e+02 4.155371161576e+02 3.625107820245e+02 3.099194753187e+02 2.577000843702e+02 2.057899438226e+02 1.541267594327e+02 1.026485333142e+02 5.129348953832e+01 0.000000000000e+00 5.231500000000e+02 4.690621114382e+02 4.155371161576e+02 3.625107820245e+02 3.099194753187e+02 2.577000843702e+02 2.057899438226e+02 1.541267594327e+02 1.026485333142e+02 5.129348953832e+01 0.000000000000e+00 5.231500000000e+02 4.690621114382e+02 4.155371161576e+02 3.625107820245e+02 3.099194753187e+02 2.577000843702e+02 2.057899438226e+02 1.541267594327e+02 1.026485333142e+02 5.129348953832e+01 0.000000000000e+00 5.231500000000e+02 4.690621114382e+02 4.155371161576e+02 3.625107820245e+02 3.099194753187e+02 2.577000843702e+02 2.057899438226e+02 1.541267594327e+02 1.026485333142e+02 5.129348953832e+01 0.000000000000e+00 5.231500000000e+02 4.690621114382e+02 4.155371161576e+02 3.625107820245e+02 3.099194753187e+02 2.577000843702e+02 2.057899438226e+02 1.541267594327e+02 1.026485333142e+02 5.129348953832e+01 0.000000000000e+00 5.231500000000e+02 4.690621114382e+02 4.155371161576e+02 3.625107820245e+02 3.099194753187e+02 2.577000843702e+02 2.057899438226e+02 1.541267594327e+02 1.026485333142e+02 5.129348953832e+01 0.000000000000e+00 5.231500000000e+02 4.690621114382e+02 4.155371161576e+02 3.625107820245e+02 3.099194753187e+02 2.577000843702e+02 2.057899438226e+02 1.541267594327e+02 1.026485333142e+02 5.129348953832e+01 0.000000000000e+00 5.231500000000e+02 4.690621114382e+02 4.155371161576e+02 3.625107820245e+02 3.099194753187e+02 2.577000843702e+02 2.057899438226e+02 1.541267594327e+02 1.026485333142e+02 5.129348953832e+01 0.000000000000e+00 5.231500000000e+02 4.690621114382e+02 4.155371161576e+02 3.625107820245e+02 3.099194753187e+02 2.577000843702e+02 2.057899438226e+02 1.541267594327e+02 1.026485333142e+02 5.129348953832e+01 0.000000000000e+00 
        </DataArray>
        <DataArray type="Float64" Name="STRESS_XX" format="ascii">
          -2.904742136027e-02 -2.849379207192e-02 -2.666546156028e-02 -2.373938327488e-02 -1.998308966732e-02 -1.571424411293e-02 -1.127375394648e-02 -7.018465689766e-03 -3.337525970787e-03 -6.881903722080e-04 2.648170768068e-04 -2.860921945148e-02 -2.806073772550e-02 -2.623387425835e-02 -2.331980016225e-02 -1.959471341338e-02 -1.538100067155e-02 -1.101748850492e-02 -6.851614170033e-03 -3.256785256616e-03 -6.709814570912e-04 2.588166583522e-04 -2.724738441184e-02 -2.669809395178e-02 -2.487587978119e-02 -2.199926196705e-02 -1.837280473936e-02 -1.433278611761e-02 -1.021078469772e-02 -6.325070252737e-03 -3.000935215042e-03 -6.164803343627e-04 2.396821812499e-04 -2.476320142983e-02 -2.420848113844e-02 -2.239204113405e-02 -1.958531443492e-02 -1.614315522248e-02 -1.242295708235e-02 -8.739673503542e-03 -5.359738208124e-03 -2.526302881357e-03 -5.127994952511e-04 2.041344022620e-04 -2.080557823709e-02 -2.023959935334e-02 -1.843230038763e-02 -1.574870535687e-02 -1.261964620572e-02 -9.421515031153e-03 -6.431830462979e-03 -3.837535011997e-03 -1.766689901851e-03 -3.414918374649e-04 1.471074415841e-04 -1.482656133374e-02 -1.424158817377e-02 -1.246068725200e-02 -1.001069071670e-02 -7.419203395798e-03 -5.049819968380e-03 -3.096222614265e-03 -1.632093243727e-03 -6.482223761540e-04 -7.969147108299e-05 6.291719229756e-05 -5.987438756837e-03 -5.375257086434e-03 -3.687473167175e-03 -1.730667327009e-03 -1.068520209173e-04 9.409741599172e-04 1.393379517635e-03 1.325885189786e-03 8.771868135878e-04 2.940213269056e-04 -5.217972889031e-05 7.047091507680e-03 7.688248797495e-03 9.052773066361e-03 9.874688506878e-03 9.684381983170e-03 8.614530465817e-03 6.945212804361e-03 4.922091176276e-03 2.758440163680e-03 7.849651624637e-04 -1.937723195745e-04 2.661117715699e-02 2.724224436989e-02 2.746143731545e-02 2.554150179711e-02 2.197127897657e-02 1.759356146311e-02 1.301755754897e-02 8.635298199878e-03 4.673192368690e-03 1.335406223300e-03 -3.312542885390e-04 5.740805159008e-02 5.794468290911e-02 5.342940313363e-02 4.516888381282e-02 3.590843951107e-02 2.676327305259e-02 1.837611503371e-02 1.120514503572e-02 5.587798729151e-03 1.598451702907e-03 -3.407065975412e-04 1.227763207488e-01 1.056249423721e-01 8.484480888749e-02 6.619111199126e-02 4.926904427541e-02 3.415788752457e-02 2.105953964972e-02 1.036628049232e-02 2.773266817367e-03 -5.884704813461e-04 -2.144674967466e-04 
        </DataArray>
        <DataArray type="Float64" Name="STRESS_XY" format="ascii">
          8.569818639865e-08 -1.110111553065e-06 -2.668038586456e-06 -4.248144648857e-06 -5.882964116242e-06 -7.409182053232e-06 -8.644205995362e-06 -9.428528466411e-06 -9.701047863065e-06 -1.089109780027e-05 2.436757991381e-05 -3.601123099270e-06 -1.326990748948e-03 -2.527434026777e-03 -3.495994751737e-03 -4.165489326586e-03 -4.502825816449e-03 -4.493200082831e-03 -4.117230937799e-03 -3.327265897481e-03 -2.029048022236e-03 -7.004891569566e-05 -7.933086574159e-06 -2.656446157562e-03 -5.044495083141e-03 -6.950232607360e-03 -8.243487969596e-03 -8.869771495460e-03 -8.814010155538e-03 -8.051336043379e-03 -6.496970532813e-03 -3.965391521267e-03 -1.395461141088e-04 -1.308129907894e-05 -3.989773073161e-03 -7.539148691362e-03 -1.031348253286e-02 -1.213204660115e-02 -1.294526251674e-02 -1.276736132983e-02 -1.159505391381e-02 -9.328049889818e-03 -5.699044829591e-03 -2.069884581488e-04 -2.005449706336e-05 -5.331908609850e-03 -9.994168504381e-03 -1.351568190064e-02 -1.569370359845e-02 -1.653042033104e-02 -1.611306998346e-02 -1.449615421809e-02 -1.159591706924e-02 -7.086108563264e-03 -2.680886323592e-04 -3.059326835713e-05 -6.689029293663e-03 -1.237349977817e-02 -1.643519268767e-02 -1.871717194028e-02 -1.935014302607e-02 -1.854472218540e-02 -1.644569199595e-02 -1.302274811277e-02 -7.937903877954e-03 -3.140512361535e-04 -4.855574186027e-05 -8.062725635895e-03 -1.458263447934e-02 -1.882684970678e-02 -2.084375666801e-02 -2.100412835586e-02 -1.967308587882e-02 -1.708577944711e-02 -1.329069658941e-02 -8.022313269298e-03 -3.287018977628e-04 -8.406907284280e-05 -9.430299350596e-03 -1.635689468554e-02 -2.015838391490e-02 -2.143537613940e-02 -2.089941635996e-02 -1.902026045645e-02 -1.605136248808e-02 -1.210088868723e-02 -7.093520433089e-03 -2.831692718654e-04 -1.710440478251e-04 -1.067004843897e-02 -1.692055092138e-02 -1.926691125286e-02 -1.939040077823e-02 -1.818598449189e-02 -1.602921108154e-02 -1.304878878507e-02 -9.312216662223e-03 -4.994381738676e-03 -1.232147187477e-04 -5.413012179058e-04 -1.119921706227e-02 -1.381755750418e-02 -1.387395187483e-02 -1.305954276477e-02 -1.177030346399e-02 -1.007348559146e-02 -7.901133157796e-03 -5.155285838705e-03 -1.991823164638e-03 2.521996485683e-04 -2.310225263546e-03 -2.392821787995e-03 -1.217927656999e-03 -8.198897041662e-04 -6.164425405096e-04 -4.879514271797e-04 -3.874043826413e-04 -2.772135589935e-04 -9.921598707161e-05 2.616572697023e-04 3.057936891128e-04 
        </DataArray>
        <DataArray type="Float64" Name="STRESS_YY" format="ascii">
          -6.825114784300e-02 -4.733813347996e-02 -3.004973865433e-02 -1.599538577393e-02 -4.594118813350e-03 4.873248662795e-03 1.322175582723e-02 2.134466601488e-02 3.022757445775e-02 4.099265735899e-02 5.496747682394e-02 -6.756824885437e-02 -4.669339394047e-02 -2.949751383457e-02 -1.557773542099e-02 -4.335764189896e-03 4.960899416836e-03 1.313087425522e-02 2.105918146412e-02 2.971242362646e-02 4.018756883233e-02 5.378969562751e-02 -6.554290422419e-02 -4.476899515663e-02 -2.785577344018e-02 -1.434794558589e-02 -3.588342419633e-03 5.198376443168e-03 1.284220585910e-02 2.020247070463e-02 2.818609186262e-02 3.780885571494e-02 5.030045237398e-02 -6.216545049030e-02 -4.157215022523e-02 -2.515894681650e-02 -1.236786396615e-02 -2.427391865215e-03 5.517494025154e-03 1.231678167987e-02 1.878369770934e-02 2.571777550661e-02 3.398255996196e-02 4.465129430162e-02 -5.742249676343e-02 -3.711282066647e-02 -2.147152282905e-02 -9.752655200507e-03 -9.891324395542e-04 5.798812499001e-03 1.148706994002e-02 1.681743048672e-02 2.242692609030e-02 2.893566008117e-02 3.713309317115e-02 -5.128862239661e-02 -3.140969415910e-02 -1.690757816225e-02 -6.693426080196e-03 5.164401482533e-04 5.870222295284e-03 1.026058323823e-02 1.432602005483e-02 1.848725792518e-02 2.301661580737e-02 2.823233798861e-02 -4.371994965669e-02 -2.450487925065e-02 -1.167565470156e-02 -3.497106120212e-03 1.796616818754e-03 5.524256383440e-03 8.543320608641e-03 1.135190565493e-02 1.412781633277e-02 1.671182422314e-02 1.870336108066e-02 -3.464476076127e-02 -1.651128981029e-02 -6.184585609728e-03 -6.462345064972e-04 2.496527883971e-03 4.582944746120e-03 6.306535285213e-03 7.994074203463e-03 9.626546845200e-03 1.063633534280e-02 9.644350022812e-03 -2.393305176234e-02 -7.767653258107e-03 -1.298472195279e-03 1.169733921747e-03 2.318856186072e-03 3.047033962827e-03 3.720756458917e-03 4.497110409700e-03 5.303738462294e-03 5.450658606359e-03 2.551537062583e-03 -1.086088857374e-02 2.470873585429e-04 1.242254864814e-03 1.371033780947e-03 1.350675532597e-03 1.321100392801e-03 1.337143776343e-03 1.434085403403e-03 1.608250819333e-03 1.600396421176e-03 -7.024625371808e-04 2.625695968655e-03 2.131098023980e-03 1.195490202784e-03 8.588547470812e-04 6.409077167754e-04 4.528588001002e-04 2.659676329755e-04 6.921624571529e-05 -1.255175261855e-04 -2.186687572992e-04 -2.159221584774e-04 
        </DataArray>
        <DataArray type="Float64" Name="STRESS_ZZ" format="ascii">
          -1.829956707610e-01 -1.606538384284e-01 -1.391824722147e-01 -1.184986006299e-01 -9.848948828791e-02 -7.901612343987e-02 -5.991784291962e-02 -4.101540717567e-02 -2.211165424828e-02 -2.988945828232e-03 1.656968817022e-02 -1.826593404918e-01 -1.603305002626e-01 -1.388873285782e-01 -1.182474305902e-01 -9.829546902469e-02 -7.888985518125e-02 -5.986822775876e-02 -4.105099708498e-02 -2.224197728341e-02 -3.225309711694e-03 1.621455368576e-02 -1.816431865908e-01 -1.593443874953e-01 -1.379874081167e-01 -1.174823321811e-01 -9.770466989140e-02 -7.850414770716e-02 -5.971281713544e-02 -4.115004713764e-02 -2.262312180010e-02 -3.922573310091e-03 1.516204036657e-02 -1.798846955760e-01 -1.576384501719e-01 -1.364332085355e-01 -1.161641234355e-01 -9.668748987001e-02 -7.783546372199e-02 -5.942911103095e-02 -4.128607942284e-02 -2.322122700679e-02 -5.039357784252e-03 1.345662861116e-02 -1.772745225002e-01 -1.551099867688e-01 -1.341390591153e-01 -1.142285780824e-01 -9.519895933729e-02 -7.685063556448e-02 -5.898567164074e-02 -4.141929863079e-02 -2.398059793783e-02 -6.502035451153e-03 1.118406018382e-02 -1.736406551191e-01 -1.515996454627e-01 -1.309783917746e-01 -1.115894049543e-01 -9.318715471797e-02 -7.551770410676e-02 -5.835293529666e-02 -4.150508922987e-02 -2.482695812966e-02 -8.199208623378e-03 8.488576554271e-03 -1.687183165241e-01 -1.468683016640e-01 -1.267768505109e-01 -1.081465019494e-01 -9.060939630435e-02 -7.382425564182e-02 -5.752123344597e-02 -4.150993001979e-02 -2.567716785046e-02 -9.978532259252e-03 5.595354405531e-03 -1.620854007761e-01 -1.405511730667e-01 -1.213074559133e-01 -1.038096337151e-01 -8.746205278356e-02 -7.180458224125e-02 -5.652671905698e-02 -4.143841765928e-02 -2.646317269171e-02 -1.165389577269e-02 2.835173310971e-03 -1.530026623816e-01 -1.320618834293e-01 -1.143190226143e-01 -9.856479919955e-02 -8.382928519491e-02 -6.957164617705e-02 -5.548074928149e-02 -4.137354469033e-02 -2.718558954507e-02 -1.304446647537e-02 6.660848322133e-04 -1.398419510951e-01 -1.204467296825e-01 -1.057664147508e-01 -9.261619463708e-02 -7.993859123061e-02 -6.733851277121e-02 -5.458826584084e-02 -4.152149814147e-02 -2.801985392982e-02 -1.412063148704e-02 -3.129507404166e-04 -1.161854949848e-01 -1.055774486440e-01 -9.635582242324e-02 -8.646317989370e-02 -7.614334014605e-02 -6.538060090743e-02 -5.410459129904e-02 -4.218261825180e-02 -2.938434400701e-02 -1.532242769586e-02 -1.291168965672e-04 
        </DataArray>
        <DataArray type="Float64" Name="STRAIN_XX" format="ascii">
          9.530129724806e-03 8.181336203020e-03 6.965338754798e-03 5.866046788641e-03 4.859919914608e-03 3.918687767858e-03 3.011300745957e-03 2.104572568175e-03 1.162207940988e-03 1.424277187062e-04 -1.009349162926e-03 9.536436064398e-03 8.188128157059e-03 6.973785267419e-03 5.876472359824e-03 4.871951537843e-03 3.931500517267e-03 3.024093382381e-03 2.117104656640e-03 1.175273792135e-03 1.581250824278e-04 -9.877361016965e-04 9.557835372984e-03 8.211437219364e-03 7.002142230296e-03 5.910856727536e-03 4.911020223698e-03 3.972512860306e-03 3.064411531859e-03 2.155831902399e-03 1.214706788599e-03 2.046628984975e-04 -9.237650305198e-04 9.602759161432e-03 8.259950463978e-03 7.059691315327e-03 5.978688176228e-03 4.986077859133e-03 4.049345649120e-03 3.137917561221e-03 2.224011599006e-03 1.281114350622e-03 2.802155131286e-04 -8.203924986463e-04 9.686172740095e-03 8.349119220955e-03 7.162799349810e-03 6.096373073487e-03 5.112052717669e-03 4.174183652063e-03 3.253333025290e-03 2.326490128782e-03 1.375146687942e-03 3.813669856093e-04 -6.832399316622e-04 9.831348662904e-03 8.503117832171e-03 7.336810279970e-03 6.288206119469e-03 5.309444605658e-03 4.362297589519e-03 3.420653642244e-03 2.468328322952e-03 1.496778879979e-03 5.026367760945e-04 -5.215884366936e-04 1.007381624273e-02 8.759093235751e-03 7.619818597471e-03 6.587646905194e-03 5.602538455641e-03 4.628323749632e-03 3.647095088223e-03 2.651740941545e-03 1.643841003013e-03 6.359199839050e-04 -3.496092559404e-04 1.047010666518e-02 9.176726115400e-03 8.069918936838e-03 7.037600899455e-03 6.013826914131e-03 4.978326024723e-03 3.929214829512e-03 2.869936261249e-03 1.808956986286e-03 7.700247245570e-04 -1.875061580814e-04 1.111895197144e-02 9.861684101854e-03 8.776885614697e-03 7.682771014079e-03 6.549558734425e-03 5.395941425343e-03 4.240371375219e-03 3.095785512251e-03 1.972210308947e-03 8.901825956318e-04 -6.174004080848e-05 1.221071445194e-02 1.104327792234e-02 9.854979202369e-03 8.529552475470e-03 7.171482855437e-03 5.825348646236e-03 4.516842625567e-03 3.264030291921e-03 2.080473736032e-03 9.730861022348e-04 -1.718219726761e-06 1.479287430732e-02 1.307443372957e-02 1.121718193828e-02 9.450027592879e-03 7.763623797519e-03 6.161906426743e-03 4.653017630161e-03 3.253027065112e-03 1.990709241509e-03 9.121021132794e-04 -5.283608582537e-06 
        </DataArray>
        <DataArray type="Float64" Name="STRAIN_XY" format="ascii">
          1.061025164936e-08 -1.374423827604e-07 -3.303285868945e-07 -5.259607660490e-07 -7.283669858204e-07 -9.173273018287e-07 -1.070235027997e-06 -1.167341619651e-06 -1.201082116380e-06 -1.348421632414e-06 3.016938465519e-06 -4.458533361001e-07 -1.642940927269e-04 -3.129204033152e-04 -4.328374454532e-04 -5.157272499583e-04 -5.574927201318e-04 -5.563009626363e-04 -5.097524018227e-04 -4.119472063548e-04 -2.512154694196e-04 -8.672722895653e-06 -9.821916710863e-07 -3.288933337934e-04 -6.245565341032e-04 -8.605049894827e-04 -1.020622320045e-03 -1.098162185152e-03 -1.091258400210e-03 -9.968320815612e-04 -8.043868278721e-04 -4.909532359664e-04 -1.727713793728e-05 -1.619589409774e-06 -4.939719042961e-04 -9.334184094067e-04 -1.276907361211e-03 -1.502062912524e-03 -1.602746787786e-03 -1.580720926551e-03 -1.435578103615e-03 -1.154901414930e-03 -7.055960265208e-04 -2.562714243747e-05 -2.482937731654e-06 -6.601410659814e-04 -1.237373243400e-03 -1.673370140080e-03 -1.943029969332e-03 -2.046623469558e-03 -1.994951521762e-03 -1.794761950812e-03 -1.435684970477e-03 -8.773277268803e-04 -3.319192591113e-05 -3.787737987073e-06 -8.281655315963e-04 -1.531957115392e-03 -2.034833380379e-03 -2.317364144987e-03 -2.395731993704e-03 -2.296013222954e-03 -2.036133294737e-03 -1.612340242533e-03 -9.827880991753e-04 -3.888253399996e-05 -6.011663277938e-06 -9.982422215870e-04 -1.805469030775e-03 -2.330943297030e-03 -2.580655587468e-03 -2.600511129774e-03 -2.435715394521e-03 -2.115382217261e-03 -1.645514815832e-03 -9.932387857226e-04 -4.069642543730e-05 -1.040855187577e-05 -1.167560871979e-03 -2.025139342020e-03 -2.495799913274e-03 -2.653903712497e-03 -2.587546787424e-03 -2.354889389846e-03 -1.987311546143e-03 -1.498205266038e-03 -8.782453869539e-04 -3.505905270715e-05 -2.117688211167e-05 -1.321053616253e-03 -2.094925352171e-03 -2.385427107497e-03 -2.400716286828e-03 -2.251598079948e-03 -1.984568991047e-03 -1.615564325771e-03 -1.152941110561e-03 -6.183520247885e-04 -1.525515565448e-05 -6.701824602643e-05 -1.386569731519e-03 -1.710745214804e-03 -1.717727374979e-03 -1.616895770876e-03 -1.457275666970e-03 -1.247193454180e-03 -9.782355338224e-04 -6.382734847921e-04 -2.466066775266e-04 3.122471839417e-05 -2.860278897724e-04 -2.962541261327e-04 -1.507910432475e-04 -1.015101538492e-04 -7.632145739643e-05 -6.041303384130e-05 -4.796435213654e-05 -3.432167873253e-05 -1.228388411363e-05 3.239566196314e-05 3.786017103301e-05 
        </DataArray>
        <DataArray type="Float64" Name="STRAIN_YY" format="ascii">
          7.103232371113e-03 7.014781734903e-03 6.755835887071e-03 6.345437110128e-03 5.812570491282e-03 5.193151606356e-03 4.527689446234e-03 3.860385483225e-03 3.240047491326e-03 2.722670673495e-03 2.377005964277e-03 7.124686625171e-03 7.034678010419e-03 6.771750436510e-03 6.355743034283e-03 5.816553156439e-03 5.190760998929e-03 4.518992029437e-03 3.844915814944e-03 3.216224818231e-03 2.687463909868e-03 2.326080215442e-03 7.187160336981e-03 7.092762382873e-03 6.817672622834e-03 6.384509646370e-03 5.826248843491e-03 5.181584828354e-03 4.491501423471e-03 3.798013009283e-03 3.145332274359e-03 2.583374177740e-03 2.175235029030e-03 7.287381838641e-03 7.185056663367e-03 6.888406677842e-03 6.425482729057e-03 5.835148924107e-03 5.159945003395e-03 4.441412405908e-03 3.718605251040e-03 3.029557298449e-03 2.415642527147e-03 1.931098352266e-03 7.419411117035e-03 7.304586472999e-03 6.974657008198e-03 6.467557130785e-03 5.832036903193e-03 5.116394403930e-03 4.362598288333e-03 3.605130850132e-03 2.872846725551e-03 2.193762104382e-03 1.606368708739e-03 7.574173454249e-03 7.440330318793e-03 7.061526556955e-03 6.493560596967e-03 5.800698729814e-03 5.038300205841e-03 4.247503528350e-03 3.456211527149e-03 2.681356231966e-03 1.932408179047e-03 1.222232850697e-03 7.737994139408e-03 7.574878530347e-03 7.125312121533e-03 6.478295932281e-03 5.720372240954e-03 4.912050744421e-03 4.089710489095e-03 3.272399351292e-03 2.464118068486e-03 1.652260163196e-03 8.114480322699e-04 7.889182477107e-03 7.678659439680e-03 7.126653875937e-03 6.386305665294e-03 5.568864517514e-03 4.728751670647e-03 3.889677649755e-03 3.060106639122e-03 2.234125495142e-03 1.379871450006e-03 4.215204631140e-04 7.990023514526e-03 7.694404724883e-03 6.996510264033e-03 6.174042526557e-03 5.332980180728e-03 4.495442103897e-03 3.664855117263e-03 2.839611982383e-03 2.011244114742e-03 1.144936314583e-03 1.167184714039e-04 7.984541965608e-03 7.471522007305e-03 6.624346214299e-03 5.818256997306e-03 5.032192704389e-03 4.250357005391e-03 3.462049166778e-03 2.659155171825e-03 1.834120770186e-03 9.732064895563e-04 -2.411263503779e-05 7.354978487593e-03 6.667671936590e-03 6.038890781611e-03 5.405649763477e-03 4.753310581984e-03 4.075404648561e-03 3.365796505316e-03 2.615589754608e-03 1.811260686908e-03 9.349946009585e-04 -5.373659070629e-06 
        </DataArray>
        <DataArray type="Float64" Name="STRAIN_ZZ" format="ascii">
          0.000000000000e+00 0.000000000000e+00 0.000000000000e+00 0.000000000000e+00 0.000000000000e+00 0.000000000000e+00 0.000000000000e+00 0.000000000000e+00 0.000000000000e+00 0.000000000000e+00 0.000000000000e+00 0.000000000000e+00 0.000000000000e+00 0.000000000000e+00 0.000000000000e+00 0.000000000000e+00 0.000000000000e+00 0.000000000000e+00 0.000000000000e+00 0.000000000000e+00 0.000000000000e+00 0.000000000000e+00 0.000000000000e+00 0.000000000000e+00 0.000000000000e+00 0.000000000000e+00 0.000000000000e+00 0.000000000000e+00 0.000000000000e+00 0.000000000000e+00 0.000000000000e+00 0.000000000000e+00 0.000000000000e+00 0.000000000000e+00 0.000000000000e+00 0.000000000000e+00 0.000000000000e+00 0.000000000000e+00 0.000000000000e+00 0.000000000000e+00 0.000000000000e+00 0.000000000000e+00 0.000000000000e+00 0.000000000000e+00 0.000000000000e+00 0.000000000000e+00 0.000000000000e+00 0.000000000000e+00 0.000000000000e+00 0.000000000000e+00 0.000000000000e+00 0.000000000000e+00 0.000000000000e+00 0.000000000000e+00 0.000000000000e+00 0.000000000000e+00 0.000000000000e+00 0.000000000000e+00 0.000000000000e+00 0.000000000000e+00 0.000000000000e+00 0.000000000000e+00 0.000000000000e+00 0.000000000000e+00 0.000000000000e+00 0.000000000000e+00 0.000000000000e+00 0.000000000000e+00 0.000000000000e+00 0.000000000000e+00 0.000000000000e+00 0.000000000000e+00 0.000000000000e+00 0.000000000000e+00 0.000000000000e+00 0.000000000000e+00 0.000000000000e+00 0.000000000000e+00 0.000000000000e+00 0.000000000000e+00 0.000000000000e+00 0.000000000000e+00 0.000000000000e+00 0.000000000000e+00 0.000000000000e+00 0.000000000000e+00 0.000000000000e+00 0.000000000000e+00 0.000000000000e+00 0.000000000000e+00 0.000000000000e+00 0.000000000000e+00 0.000000000000e+00 0.000000000000e+00 0.000000000000e+00 0.000000000000e+00 0.000000000000e+00 0.000000000000e+00 0.000000000000e+00 0.000000000000e+00 0.000000000000e+00 0.000000000000e+00 0.000000000000e+00 0.000000000000e+00 0.000000000000e+00 0.000000000000e+00 0.000000000000e+00 0.000000000000e+00 0.000000000000e+00 0.000000000000e+00 0.000000000000e+00 0.000000000000e+00 0.000000000000e+00 0.000000000000e+00 0.000000000000e+00 0.000000000000e+00 0.000000000000e+00 0.000000000000e+00 0.000000000000e+00 0.000000000000e+00 0.000000000000e+00 
        </DataArray>
        <DataArray type="Float64" Name="STRAIN_PLS" format="ascii">
          0.000000000000e+00 0.000000000000e+00 0.000000000000e+00 0.000000000000e+00 0.000000000000e+00 0.000000000000e+00 0.000000000000e+00 0.000000000000e+00 0.000000000000e+00 0.000000000000e+00 0.000000000000e+00 0.000000000000e+00 0.000000000000e+00 0.000000000000e+00 0.000000000000e+00 0.000000000000e+00 0.000000000000e+00 0.000000000000e+00 0.000000000000e+00 0.000000000000e+00 0.000000000000e+00 0.000000000000e+00 0.000000000000e+00 0.000000000000e+00 0.000000000000e+00 0.000000000000e+00 0.000000000000e+00 0.000000000000e+00 0.000000000000e+00 0.000000000000e+00 0.000000000000e+00 0.000000000000e+00 0.000000000000e+00 0.000000000000e+00 0.000000000000e+00 0.000000000000e+00 0.000000000000e+00 0.000000000000e+00 0.000000000000e+00 0.000000000000e+00 0.000000000000e+00 0.000000000000e+00 0.000000000000e+00 0.000000000000e+00 0.000000000000e+00 0.000000000000e+00 0.000000000000e+00 0.000000000000e+00 0.000000000000e+00 0.000000000000e+00 0.000000000000e+00 0.000000000000e+00 0.000000000000e+00 0.000000000000e+00 0.000000000000e+00 0.000000000000e+00 0.000000000000e+00 0.000000000000e+00 0.000000000000e+00 0.000000000000e+00 0.000000000000e+00 0.000000000000e+00 0.000000000000e+00 0.000000000000e+00 0.000000000000e+00 0.000000000000e+00 0.000000000000e+00 0.000000000000e+00 0.000000000000e+00 0.000000000000e+00 0.000000000000e+00 0.000000000000e+00 0.000000000000e+00 0.000000000000e+00 0.000000000000e+00 0.000000000000e+00 0.000000000000e+00 0.000000000000e+00 0.000000000000e+00 0.000000000000e+00 0.000000000000e+00 0.000000000000e+00 0.000000000000e+00 0.000000000000e+00 0.000000000000e+00 0.000000000000e+00 0.000000000000e+00 0.000000000000e+00 0.000000000000e+00 0.000000000000e+00 0.000000000000e+00 0.000000000000e+00 0.000000000000e+00 0.000000000000e+00 0.000000000000e+00 0.000000000000e+00 0.000000000000e+00 0.000000000000e+00 0.000000000000e+00 0.000000000000e+00 0.000000000000e+00 0.000000000000e+00 0.000000000000e+00 0.000000000000e+00 0.000000000000e+00 0.000000000000e+00 0.000000000000e+00 0.000000000000e+00 0.000000000000e+00 0.000000000000e+00 0.000000000000e+00 0.000000000000e+00 0.000000000000e+00 0.000000000000e+00 0.000000000000e+00 0.000000000000e+00 0.000000000000e+00 0.000000000000e+00 0.000000000000e+00 0.000000000000e+00 0.000000000000e+00 
        </DataArray>
        <DataArray type="Float64" Name="DILATANCY" format="ascii">
          0.000000000000e+00 0.000000000000e+00 0.000000000000e+00 0.000000000000e+00 0.000000000000e+00 0.000000000000e+00 0.000000000000e+00 0.000000000000e+00 0.000000000000e+00 0.000000000000e+00 0.000000000000e+00 0.000000000000e+00 0.000000000000e+00 0.000000000000e+00 0.000000000000e+00 0.000000000000e+00 0.000000000000e+00 0.000000000000e+00 0.000000000000e+00 0.000000000000e+00 0.000000000000e+00 0.000000000000e+00 0.000000000000e+00 0.000000000000e+00 0.000000000000e+00 0.000000000000e+00 0.000000000000e+00 0.000000000000e+00 0.000000000000e+00 0.000000000000e+00 0.000000000000e+00 0.000000000000e+00 0.000000000000e+00 0.000000000000e+00 0.000000000000e+00 0.000000000000e+00 0.000000000000e+00 0.000000000000e+00 0.000000000000e+00 0.000000000000e+00 0.000000000000e+00 0.000000000000e+00 0.000000000000e+00 0.000000000000e+00 0.000000000000e+00 0.000000000000e+00 0.000000000000e+00 0.000000000000e+00 0.000000000000e+00 0.000000000000e+00 0.000000000000e+00 0.000000000000e+00 0.000000000000e+00 0.000000000000e+00 0.000000000000e+00 0.000000000000e+00 0.000000000000e+00 0.000000000000e+00 0.000000000000e+00 0.000000000000e+00 0.000000000000e+00 0.000000000000e+00 0.000000000000e+00 0.000000000000e+00 0.000000000000e+00 0.000000000000e+00 0.000000000000e+00 0.000000000000e+00 0.000000000000e+00 0.000000000000e+00 0.000000000000e+00 0.000000000000e+00 0.000000000000e+00 0.000000000000e+00 0.000000000000e+00 0.000000000000e+00 0.000000000000e+00 0.000000000000e+00 0.000000000000e+00 0.000000000000e+00 0.000000000000e+00 0.000000000000e+00 0.000000000000e+00 0.000000000000e+00 0.000000000000e+00 0.000000000000e+00 0.000000000000e+00 0.000000000000e+00 0.000000000000e+00 0.000000000000e+00 0.000000000000e+00 0.000000000000e+00 0.000000000000e+00 0.000000000000e+00 0.000000000000e+00 0.000000000000e+00 0.000000000000e+00 0.000000000000e+00 0.000000000000e+00 0.000000000000e+00 0.000000000000e+00 0.000000000000e+00 0.000000000000e+00 0.000000000000e+00 0.000000000000e+00 0.000000000000e+00 0.000000000000e+00 0.000000000000e+00 0.000000000000e+00 0.000000000000e+00 0.000000000000e+00 0.000000000000e+00 0.000000000000e+00 0.000000000000e+00 0.000000000000e+00 0.000000000000e+00 0.000000000000e+00 0.000000000000e+00 0.000000000000e+00 0.000000000000e+00 0.000000000000e+00 
        </DataArray>
        <DataArray type="Float64" Name="NODAL_VELOCITY1" NumberOfComponents="3" format="ascii">
          8.840863942475e-01 -7.027885303356e-02 0.000000000000e+00 9.917559737287e-01 -5.013300157362e-02 0.000000000000e+00 9.800323822423e-01 -1.095993255420e-02 0.000000000000e+00 9.856309295565e-01 -4.940161004406e-03 0.000000000000e+00 9.897250397879e-01 -2.806841776010e-03 0.000000000000e+00 9.925307303776e-01 -1.780560061402e-03 0.000000000000e+00 9.944513672656e-01 -1.182413083696e-03 0.000000000000e+00 9.957471233744e-01 -7.873888906996e-04 0.000000000000e+00 9.965757016446e-01 -5.014898563999e-04 0.000000000000e+00 9.970307531299e-01 -2.767904845088e-04 0.000000000000e+00 9.973580915912e-01 -1.971745009092e-04 0.000000000000e+00 9.759316740439e-01 -6.120635373158e-02 0.000000000000e+00 9.572750125084e-01 -2.624874741850e-02 0.000000000000e+00 9.804981366265e-01 -1.354542478373e-02 0.000000000000e+00 9.864743369709e-01 -7.314658774463e-03 0.000000000000e+00 9.903150287336e-01 -4.497637519866e-03 0.000000000000e+00 9.929319512525e-01 -2.958553235876e-03 0.000000000000e+00 9.947370017267e-01 -1.997733242528e-03 0.000000000000e+00 9.959618227807e-01 -1.337857376006e-03 0.000000000000e+00 9.967476070845e-01 -8.489334504299e-04 0.000000000000e+00 9.971798084910e-01 -4.585435385647e-04 0.000000000000e+00 9.974903057613e-01 -2.683920451296e-04 0.000000000000e+00 9.913500500020e-01 -3.205809714059e-02 0.000000000000e+00 9.867500664637e-01 -2.549274346710e-02 0.000000000000e+00 9.856051281441e-01 -1.672062748039e-02 0.000000000000e+00 9.894211282796e-01 -1.095413677383e-02 0.000000000000e+00 9.921401193195e-01 -7.343192240485e-03 0.000000000000e+00 9.941527349629e-01 -5.039955654055e-03 0.000000000000e+00 9.956053337989e-01 -3.475358928603e-03 0.000000000000e+00 9.966145107666e-01 -2.349566639654e-03 0.000000000000e+00 9.972691397190e-01 -1.493637186825e-03 0.000000000000e+00 9.976300332769e-01 -8.000738232189e-04 0.000000000000e+00 9.979404012512e-01 -4.205591796908e-04 0.000000000000e+00 9.961722777100e-01 -2.345169369349e-02 0.000000000000e+00 9.942594816764e-01 -2.109069171205e-02 0.000000000000e+00 9.925631608790e-01 -1.676414731937e-02 0.000000000000e+00 9.932381605116e-01 -1.243848131434e-02 0.000000000000e+00 9.946546998835e-01 -9.011964348876e-03 0.000000000000e+00 9.959207996684e-01 -6.449474348432e-03 0.000000000000e+00 9.969034481140e-01 -4.545098628484e-03 0.000000000000e+00 9.976082497091e-01 -3.105913995440e-03 0.000000000000e+00 9.980714922988e-01 -1.982749633308e-03 0.000000000000e+00 9.983269280765e-01 -1.060047024501e-03 0.000000000000e+00 9.986069956358e-01 -5.304562671884e-04 0.000000000000e+00 9.983793933170e-01 -2.007191880685e-02 0.000000000000e+00 9.976807124330e-01 -1.883059370638e-02 0.000000000000e+00 9.968355253436e-01 -1.613967036289e-02 0.000000000000e+00 9.968890448772e-01 -1.287671330814e-02 0.000000000000e+00 9.974065458340e-01 -9.796076767890e-03 0.000000000000e+00 9.979919043820e-01 -7.214919613262e-03 0.000000000000e+00 9.984786095212e-01 -5.163169582418e-03 0.000000000000e+00 9.988362784020e-01 -3.555347711568e-03 0.000000000000e+00 9.990724890241e-01 -2.276652005650e-03 0.000000000000e+00 9.992006452241e-01 -1.215895742307e-03 0.000000000000e+00 9.994243418733e-01 -5.886339191764e-04 0.000000000000e+00 9.997759986419e-01 -1.921820542735e-02 0.000000000000e+00 9.999428712140e-01 -1.825285664151e-02 0.000000000000e+00 1.000052808321e+00 -1.596364263800e-02 0.000000000000e+00 1.000132278885e+00 -1.298732881540e-02 0.000000000000e+00 1.000170765085e+00 -1.001212083148e-02 0.000000000000e+00 1.000183163667e+00 -7.427001502962e-03 0.000000000000e+00 1.000184525921e+00 -5.333714346507e-03 0.000000000000e+00 1.000181372596e+00 -3.678360088902e-03 0.000000000000e+00 1.000175252374e+00 -2.355668979955e-03 0.000000000000e+00 1.000166103846e+00 -1.255521361399e-03 0.000000000000e+00 1.000312800571e+00 -5.905316271522e-04 0.000000000000e+00 1.001036095886e+00 -2.036798776340e-02 0.000000000000e+00 1.002184066743e+00 -1.921902299398e-02 0.000000000000e+00 1.003309917509e+00 -1.644423713614e-02 0.000000000000e+00 1.003418219719e+00 -1.298955599617e-02 0.000000000000e+00 1.002953485503e+00 -9.754592404309e-03 0.000000000000e+00 1.002377775797e+00 -7.111471838548e-03 0.000000000000e+00 1.001889643530e+00 -5.057971418954e-03 0.000000000000e+00 1.001524892114e+00 -3.469701794822e-03 0.000000000000e+00 1.001276754727e+00 -2.214596730642e-03 0.000000000000e+00 1.001130943783e+00 -1.175899335959e-03 0.000000000000e+00 1.001186336244e+00 -5.359980050140e-04 0.000000000000e+00 1.002627509984e+00 -2.415476619133e-02 0.000000000000e+00 1.005577247799e+00 -2.214004248794e-02 0.000000000000e+00 1.007799687897e+00 -1.750380525305e-02 0.000000000000e+00 1.007213397256e+00 -1.257700090786e-02 0.000000000000e+00 1.005735693667e+00 -8.810392024084e-03 0.000000000000e+00 1.004451651462e+00 -6.191749800051e-03 0.000000000000e+00 1.003460043192e+00 -4.320007827394e-03 0.000000000000e+00 1.002747508534e+00 -2.933461852004e-03 0.000000000000e+00 1.002273818273e+00 -1.861187769359e-03 0.000000000000e+00 1.002002798457e+00 -9.826943259332e-04 0.000000000000e+00 1.001960178509e+00 -4.292861335535e-04 0.000000000000e+00 1.005006933983e+00 -3.342981702077e-02 0.000000000000e+00 1.013514068695e+00 -2.842705913843e-02 0.000000000000e+00 1.015718666732e+00 -1.818297251305e-02 0.000000000000e+00 1.011048399610e+00 -1.049730985571e-02 0.000000000000e+00 1.008250312093e+00 -6.771459856564e-03 0.000000000000e+00 1.006206958524e+00 -4.567607007088e-03 0.000000000000e+00 1.004744802564e+00 -3.121037011665e-03 0.000000000000e+00 1.003730765842e+00 -2.095777218179e-03 0.000000000000e+00 1.003069390834e+00 -1.320352530935e-03 0.000000000000e+00 1.002696636142e+00 -6.914613427293e-04 0.000000000000e+00 1.002558522102e+00 -2.795308903734e-04 0.000000000000e+00 1.002325694523e+00 -6.238305530487e-02 0.000000000000e+00 1.054760958938e+00 -4.223176977888e-02 0.000000000000e+00 1.019137120436e+00 -1.029266162475e-02 0.000000000000e+00 1.013924213050e+00 -5.644880889401e-03 0.000000000000e+00 1.010017528864e+00 -3.458788656160e-03 0.000000000000e+00 1.007392053987e+00 -2.279026198756e-03 0.000000000000e+00 1.005589282662e+00 -1.537488138430e-03 0.000000000000e+00 1.004367872866e+00 -1.023939402306e-03 0.000000000000e+00 1.003581677301e+00 -6.396353740409e-04 0.000000000000e+00 1.003142839539e+00 -3.288254299289e-04 0.000000000000e+00 1.002921935737e+00 -1.008813556635e-04 0.000000000000e+00 1.105580071183e+00 -1.034991074189e-01 0.000000000000e+00 1.007180708763e+00 -1.617405225537e-02 0.000000000000e+00 1.022838690074e+00 -4.813308250915e-03 0.000000000000e+00 1.015109623340e+00 -2.542721117756e-03 0.000000000000e+00 1.010737452449e+00 -1.546473801396e-03 0.000000000000e+00 1.007849152126e+00 -1.013250170478e-03 0.000000000000e+00 1.005905251846e+00 -6.807139696012e-04 0.000000000000e+00 1.004601931093e+00 -4.511320115868e-04 0.000000000000e+00 1.003767703695e+00 -2.792108345800e-04 0.000000000000e+00 1.003303427542e+00 -1.395643561492e-04 0.000000000000e+00 1.003070236416e+00 -2.029820832373e-05 0.000000000000e+00 
        </DataArray>
        <DataArray type="Float64" Name="DISPLACEMENT" NumberOfComponents="3" format="ascii">
          0.000000000000e+00 0.000000000000e+00 0.000000000000e+00 8.856225030223e-04 0.000000000000e+00 0.000000000000e+00 1.643018977411e-03 0.000000000000e+00 0.000000000000e+00 2.284674244113e-03 0.000000000000e+00 0.000000000000e+00 2.821080911555e-03 0.000000000000e+00 0.000000000000e+00 3.260133878979e-03 0.000000000000e+00 0.000000000000e+00 3.606758917933e-03 0.000000000000e+00 0.000000000000e+00 3.862672832500e-03 0.000000000000e+00 0.000000000000e+00 4.026126906001e-03 0.000000000000e+00 0.000000000000e+00 4.091475319400e-03 0.000000000000e+00 0.000000000000e+00 4.048387584330e-03 0.000000000000e+00 0.000000000000e+00 0.000000000000e+00 7.105057086288e-04 0.000000000000e+00 8.862900199103e-04 7.016153309501e-04 0.000000000000e+00 1.644463193409e-03 6.756162195181e-04 0.000000000000e+00 2.287077591060e-03 6.344404060288e-04 0.000000000000e+00 2.824623092042e-03 5.810173519882e-04 0.000000000000e+00 3.264933106423e-03 5.189601811645e-04 0.000000000000e+00 3.612850608319e-03 4.523210273497e-04 0.000000000000e+00 3.870039103587e-03 3.854978937199e-04 0.000000000000e+00 4.034776636845e-03 3.233286189875e-04 0.000000000000e+00 4.101561776271e-03 2.713582758404e-04 0.000000000000e+00 4.060334901846e-03 2.362142319190e-04 0.000000000000e+00 0.000000000000e+00 1.425178140053e-03 0.000000000000e+00 8.885655018184e-04 1.407104275639e-03 0.000000000000e+00 1.649365922683e-03 1.354307190192e-03 0.000000000000e+00 2.295165496167e-03 1.270826872187e-03 0.000000000000e+00 2.836432266008e-03 1.162718028985e-03 0.000000000000e+00 3.280790666321e-03 1.037342907267e-03 0.000000000000e+00 3.632810569019e-03 9.028283481710e-04 0.000000000000e+00 3.893975662036e-03 7.678616482091e-04 0.000000000000e+00 4.062631535335e-03 6.418913629364e-04 0.000000000000e+00 4.133710514751e-03 5.357087326370e-04 0.000000000000e+00 4.097993693094e-03 4.622920292665e-04 0.000000000000e+00 0.000000000000e+00 2.147924703964e-03 0.000000000000e+00 8.933080974390e-04 2.120058430172e-03 0.000000000000e+00 1.659489635550e-03 2.038796290950e-03 0.000000000000e+00 2.311642905392e-03 1.910687432679e-03 0.000000000000e+00 2.860137259548e-03 1.745351035110e-03 0.000000000000e+00 3.312162747922e-03 1.554190592921e-03 0.000000000000e+00 3.671755944287e-03 1.349451481821e-03 0.000000000000e+00 3.940042598878e-03 1.143880775830e-03 0.000000000000e+00 4.115443398956e-03 9.510594906128e-04 0.000000000000e+00 4.193612036570e-03 7.863762848724e-04 0.000000000000e+00 4.166810792480e-03 6.685164248950e-04 0.000000000000e+00 0.000000000000e+00 2.882182564823e-03 0.000000000000e+00 9.020462555908e-04 2.843516848855e-03 0.000000000000e+00 1.677964121423e-03 2.731082972276e-03 0.000000000000e+00 2.341287374623e-03 2.554687851591e-03 0.000000000000e+00 2.902084653202e-03 2.328287124194e-03 0.000000000000e+00 3.366746258727e-03 2.067797205123e-03 0.000000000000e+00 3.738419636000e-03 1.789629901153e-03 0.000000000000e+00 4.017642856543e-03 1.510217365262e-03 0.000000000000e+00 4.202885882414e-03 1.246510162067e-03 0.000000000000e+00 4.290801356942e-03 1.017412022652e-03 0.000000000000e+00 4.275861940034e-03 8.461189588996e-04 0.000000000000e+00 0.000000000000e+00 3.630623228910e-03 0.000000000000e+00 9.171692826743e-04 3.579608722895e-03 0.000000000000e+00 1.709677587691e-03 3.431959494927e-03 0.000000000000e+00 2.391486094132e-03 3.202091750636e-03 0.000000000000e+00 2.971900826045e-03 2.909538681566e-03 0.000000000000e+00 3.455940069478e-03 2.575363135573e-03 0.000000000000e+00 3.845441578707e-03 2.220127276951e-03 0.000000000000e+00 4.140149916789e-03 1.863393491234e-03 0.000000000000e+00 4.338574416876e-03 1.524427531252e-03 0.000000000000e+00 4.438618541550e-03 1.224063075744e-03 0.000000000000e+00 4.437739169602e-03 9.880022017925e-04 0.000000000000e+00 0.000000000000e+00 4.394751011747e-03 0.000000000000e+00 9.423492330931e-04 4.329024725320e-03 0.000000000000e+00 1.762116774053e-03 4.140298316110e-03 0.000000000000e+00 2.473330389108e-03 3.850068966107e-03 0.000000000000e+00 3.083548456637e-03 3.485288038199e-03 0.000000000000e+00 3.595613344570e-03 3.072785016369e-03 0.000000000000e+00 4.009739268690e-03 2.637014245455e-03 0.000000000000e+00 4.324914492457e-03 2.199899511630e-03 0.000000000000e+00 4.539839644746e-03 1.781765086204e-03 0.000000000000e+00 4.653880441887e-03 1.403337131909e-03 0.000000000000e+00 4.668134289683e-03 1.089743249860e-03 0.000000000000e+00 0.000000000000e+00 5.174236830061e-03 0.000000000000e+00 9.834949597330e-04 5.090074903091e-03 0.000000000000e+00 1.847202726188e-03 4.851859390416e-03 0.000000000000e+00 2.603804629474e-03 4.492810522535e-03 0.000000000000e+00 3.257209893130e-03 4.049588571304e-03 0.000000000000e+00 3.807296288447e-03 3.554828162575e-03 0.000000000000e+00 4.252904880434e-03 3.036056087635e-03 0.000000000000e+00 4.592952951559e-03 2.516583576871e-03 0.000000000000e+00 4.826938082459e-03 2.016606313549e-03 0.000000000000e+00 4.955907329386e-03 1.554617277192e-03 0.000000000000e+00 4.984788475176e-03 1.150924348591e-03 0.000000000000e+00 0.000000000000e+00 5.965590900314e-03 0.000000000000e+00 1.051161328291e-03 5.856665106357e-03 0.000000000000e+00 1.985514399346e-03 5.557167585743e-03 0.000000000000e+00 2.810027558806e-03 5.120648423326e-03 0.000000000000e+00 3.522341094595e-03 4.594708897904e-03 0.000000000000e+00 4.119827580519e-03 4.016122773835e-03 0.000000000000e+00 4.601558973849e-03 3.413877653702e-03 0.000000000000e+00 4.968119010765e-03 2.811624994327e-03 0.000000000000e+00 5.221254290104e-03 2.228740411882e-03 0.000000000000e+00 5.364276364483e-03 1.680180865330e-03 0.000000000000e+00 5.405218677252e-03 1.176750334866e-03 0.000000000000e+00 0.000000000000e+00 6.758964170894e-03 0.000000000000e+00 1.168144010858e-03 6.613015714410e-03 0.000000000000e+00 2.216553090746e-03 6.238351436423e-03 0.000000000000e+00 3.136528232739e-03 5.720501590467e-03 0.000000000000e+00 3.921621553831e-03 5.113110618145e-03 0.000000000000e+00 4.571133930386e-03 4.453483653527e-03 0.000000000000e+00 5.087656366958e-03 3.770256035789e-03 0.000000000000e+00 5.475899439539e-03 3.086579605557e-03 0.000000000000e+00 5.742175471274e-03 2.420949669262e-03 0.000000000000e+00 5.894116215714e-03 1.785433208587e-03 0.000000000000e+00 5.941971705313e-03 1.179617529482e-03 0.000000000000e+00 0.000000000000e+00 7.525604516200e-03 0.000000000000e+00 1.404627901566e-03 7.318950855884e-03 0.000000000000e+00 2.619906496401e-03 6.871144592083e-03 0.000000000000e+00 3.653299641177e-03 6.281400871135e-03 0.000000000000e+00 4.513549477220e-03 5.602124542305e-03 0.000000000000e+00 5.209142256252e-03 4.869516531977e-03 0.000000000000e+00 5.748996301027e-03 4.111361569586e-03 0.000000000000e+00 6.143167013108e-03 3.349948211599e-03 0.000000000000e+00 6.403924578451e-03 2.602702817551e-03 0.000000000000e+00 6.547224369952e-03 1.880133089990e-03 0.000000000000e+00 6.592196314603e-03 1.177773309164e-03 0.000000000000e+00 
        </DataArray>
        <DataArray type="Float64" Name="DENSITY" format="ascii">
          8.917079500000e-07 9.029041429323e-07 9.139838169554e-07 9.249602681209e-07 9.358466686090e-07 9.466560825354e-07 9.574014816287e-07 9.680957607974e-07 9.787517536040e-07 9.893822476656e-07 1.000000000000e-06 8.917079500000e-07 9.029041429323e-07 9.139838169554e-07 9.249602681209e-07 9.358466686090e-07 9.466560825354e-07 9.574014816287e-07 9.680957607974e-07 9.787517536040e-07 9.893822476656e-07 1.000000000000e-06 8.917079500000e-07 9.029041429323e-07 9.139838169554e-07 9.249602681209e-07 9.358466686090e-07 9.466560825354e-07 9.574014816287e-07 9.680957607974e-07 9.787517536040e-07 9.893822476656e-07 1.000000000000e-06 8.917079500000e-07 9.029041429323e-07 9.139838169554e-07 9.249602681209e-07 9.358466686090e-07 9.466560825354e-07 9.574014816287e-07 9.680957607974e-07 9.787517536040e-07 9.893822476656e-07 1.000000000000e-06 8.917079500000e-07 9.029041429323e-07 9.139838169554e-07 9.249602681209e-07 9.358466686090e-07 9.466560825354e-07 9.574014816287e-07 9.680957607974e-07 9.787517536040e-07 9.893822476656e-07 1.000000000000e-06 8.917079500000e-07 9.029041429323e-07 9.139838169554e-07 9.249602681209e-07 9.358466686090e-07 9.466560825354e-07 9.574014816287e-07 9.680957607974e-07 9.787517536040e-07 9.893822476656e-07 1.000000000000e-06 8.917079500000e-07 9.029041429323e-07 9.139838169554e-07 9.249602681209e-07 9.358466686090e-07 9.466560825354e-07 9.574014816287e-07 9.680957607974e-07 9.787517536040e-07 9.893822476656e-07 1.000000000000e-06 8.917079500000e-07 9.029041429323e-07 9.139838169554e-07 9.249602681209e-07 9.358466686090e-07 9.466560825354e-07 9.574014816287e-07 9.680957607974e-07 9.787517536040e-07 9.893822476656e-07 1.000000000000e-06 8.917079500000e-07 9.029041429323e-07 9.139838169554e-07 9.249602681209e-07 9.358466686090e-07 9.466560825354e-07 9.574014816287e-07 9.680957607974e-07 9.787517536040e-07 9.893822476656e-07 1.000000000000e-06 8.917079500000e-07 9.029041429323e-07 9.139838169554e-07 9.249602681209e-07 9.358466686090e-07 9.466560825354e-07 9.574014816287e-07 9.680957607974e-07 9.787517536040e-07 9.893822476656e-07 1.000000000000e-06 8.917079500000e-07 9.029041429323e-07 9.139838169554e-07 9.249602681209e-07 9.358466686090e-07 9.466560825354e-07 9.574014816287e-07 9.680957607974e-07 9.787517536040e-07 9.893822476656e-07 1.000000000000e-06 
        </DataArray>
        <DataArray type="Float64" Name="VISCOSITY" format="ascii">
          1.278000000000e-09 1.278000000000e-09 1.278000000000e-09 1.278000000000e-09 1.278000000000e-09 1.278000000000e-09 1.278000000000e-09 1.278000000000e-09 1.278000000000e-09 1.278000000000e-09 1.278000000000e-09 1.278000000000e-09 1.278000000000e-09 1.278000000000e-09 1.278000000000e-09 1.278000000000e-09 1.278000000000e-09 1.278000000000e-09 1.278000000000e-09 1.278000000000e-09 1.278000000000e-09 1.278000000000e-09 1.278000000000e-09 1.278000000000e-09 1.278000000000e-09 1.278000000000e-09 1.278000000000e-09 1.278000000000e-09 1.278000000000e-09 1.278000000000e-09 1.278000000000e-09 1.278000000000e-09 1.278000000000e-09 1.278000000000e-09 1.278000000000e-09 1.278000000000e-09 1.278000000000e-09 1.278000000000e-09 1.278000000000e-09 1.278000000000e-09 1.278000000000e-09 1.278000000000e-09 1.278000000000e-09 1.278000000000e-09 1.278000000000e-09 1.278000000000e-09 1.278000000000e-09 1.278000000000e-09 1.278000000000e-09 1.278000000000e-09 1.278000000000e-09 1.278000000000e-09 1.278000000000e-09 1.278000000000e-09 1.278000000000e-09 1.278000000000e-09 1.278000000000e-09 1.278000000000e-09 1.278000000000e-09 1.278000000000e-09 1.278000000000e-09 1.278000000000e-09 1.278000000000e-09 1.278000000000e-09 1.278000000000e-09 1.278000000000e-09 1.278000000000e-09 1.278000000000e-09 1.278000000000e-09 1.278000000000e-09 1.278000000000e-09 1.278000000000e-09 1.278000000000e-09 1.278000000000e-09 1.278000000000e-09 1.278000000000e-09 1.278000000000e-09 1.278000000000e-09 1.278000000000e-09 1.278000000000e-09 1.278000000000e-09 1.278000000000e-09 1.278000000000e-09 1.278000000000e-09 1.278000000000e-09 1.278000000000e-09 1.278000000000e-09 1.278000000000e-09 1.278000000000e-09 1.278000000000e-09 1.278000000000e-09 1.278000000000e-09 1.278000000000e-09 1.278000000000e-09 1.278000000000e-09 1.278000000000e-09 1.278000000000e-09 1.278000000000e-09 1.278000000000e-09 1.278000000000e-09 1.278000000000e-09 1.278000000000e-09 1.278000000000e-09 1.278000000000e-09 1.278000000000e-09 1.278000000000e-09 1.278000000000e-09 1.278000000000e-09 1.278000000000e-09 1.278000000000e-09 1.278000000000e-09 1.278000000000e-09 1.278000000000e-09 1.278000000000e-09 1.278000000000e-09 1.278000000000e-09 1.278000000000e-09 1.278000000000e-09 1.278000000000e-09 1.278000000000e-09 1.278000000000e-09 
        </DataArray>
        <DataArray type="Float64" Name="SPECIFIC_HEAT_CAPACITY" format="ascii">
          4.680000000000e+03 4.680000000000e+03 4.680000000000e+03 4.680000000000e+03 4.680000000000e+03 4.680000000000e+03 4.680000000000e+03 4.680000000000e+03 4.680000000000e+03 4.680000000000e+03 4.680000000000e+03 4.680000000000e+03 4.680000000000e+03 4.680000000000e+03 4.680000000000e+03 4.680000000000e+03 4.680000000000e+03 4.680000000000e+03 4.680000000000e+03 4.680000000000e+03 4.680000000000e+03 4.680000000000e+03 4.680000000000e+03 4.680000000000e+03 4.680000000000e+03 4.680000000000e+03 4.680000000000e+03 4.680000000000e+03 4.680000000000e+03 4.680000000000e+03 4.680000000000e+03 4.680000000000e+03 4.680000000000e+03 4.680000000000e+03 4.680000000000e+03 4.680000000000e+03 4.680000000000e+03 4.680000000000e+03 4.680000000000e+03 4.680000000000e+03 4.680000000000e+03 4.680000000000e+03 4.680000000000e+03 4.680000000000e+03 4.680000000000e+03 4.680000000000e+03 4.680000000000e+03 4.680000000000e+03 4.680000000000e+03 4.680000000000e+03 4.680000000000e+03 4.680000000000e+03 4.680000000000e+03 4.680000000000e+03 4.680000000000e+03 4.680000000000e+03 4.680000000000e+03 4.680000000000e+03 4.680000000000e+03 4.680000000000e+03 4.680000000000e+03 4.680000000000e+03 4.680000000000e+03 4.680000000000e+03 4.680000000000e+03 4.680000000000e+03 4.680000000000e+03 4.680000000000e+03 4.680000000000e+03 4.680000000000e+03 4.680000000000e+03 4.680000000000e+03 4.680000000000e+03 4.680000000000e+03 4.680000000000e+03 4.680000000000e+03 4.680000000000e+03 4.680000000000e+03 4.680000000000e+03 4.680000000000e+03 4.680000000000e+03 4.680000000000e+03 4.680000000000e+03 4.680000000000e+03 4.680000000000e+03 4.680000000000e+03 4.680000000000e+03 4.680000000000e+03 4.680000000000e+03 4.680000000000e+03 4.680000000000e+03 4.680000000000e+03 4.680000000000e+03 4.680000000000e+03 4.680000000000e+03 4.680000000000e+03 4.680000000000e+03 4.680000000000e+03 4.680000000000e+03 4.680000000000e+03 4.680000000000e+03 4.680000000000e+03 4.680000000000e+03 4.680000000000e+03 4.680000000000e+03 4.680000000000e+03 4.680000000000e+03 4.680000000000e+03 4.680000000000e+03 4.680000000000e+03 4.680000000000e+03 4.680000000000e+03 4.680000000000e+03 4.680000000000e+03 4.680000000000e+03 4.680000000000e+03 4.680000000000e+03 4.680000000000e+03 4.680000000000e+03 4.680000000000e+03 4.680000000000e+03 
        </DataArray>
        <DataArray type="Float64" Name="HEAT_CONDUCTIVITY" format="ascii">
          6.000000000000e-01 6.000000000000e-01 6.000000000000e-01 6.000000000000e-01 6.000000000000e-01 6.000000000000e-01 6.000000000000e-01 6.000000000000e-01 6.000000000000e-01 6.000000000000e-01 6.000000000000e-01 6.000000000000e-01 6.000000000000e-01 6.000000000000e-01 6.000000000000e-01 6.000000000000e-01 6.000000000000e-01 6.000000000000e-01 6.000000000000e-01 6.000000000000e-01 6.000000000000e-01 6.000000000000e-01 6.000000000000e-01 6.000000000000e-01 6.000000000000e-01 6.000000000000e-01 6.000000000000e-01 6.000000000000e-01 6.000000000000e-01 6.000000000000e-01 6.000000000000e-01 6.000000000000e-01 6.000000000000e-01 6.000000000000e-01 6.000000000000e-01 6.000000000000e-01 6.000000000000e-01 6.000000000000e-01 6.000000000000e-01 6.000000000000e-01 6.000000000000e-01 6.000000000000e-01 6.000000000000e-01 6.000000000000e-01 6.000000000000e-01 6.000000000000e-01 6.000000000000e-01 6.000000000000e-01 6.000000000000e-01 6.000000000000e-01 6.000000000000e-01 6.000000000000e-01 6.000000000000e-01 6.000000000000e-01 6.000000000000e-01 6.000000000000e-01 6.000000000000e-01 6.000000000000e-01 6.000000000000e-01 6.000000000000e-01 6.000000000000e-01 6.000000000000e-01 6.000000000000e-01 6.000000000000e-01 6.000000000000e-01 6.000000000000e-01 6.000000000000e-01 6.000000000000e-01 6.000000000000e-01 6.000000000000e-01 6.000000000000e-01 6.000000000000e-01 6.000000000000e-01 6.000000000000e-01 6.000000000000e-01 6.000000000000e-01 6.000000000000e-01 6.000000000000e-01 6.000000000000e-01 6.000000000000e-01 6.000000000000e-01 6.000000000000e-01 6.000000000000e-01 6.000000000000e-01 6.000000000000e-01 6.000000000000e-01 6.000000000000e-01 6.000000000000e-01 6.000000000000e-01 6.000000000000e-01 6.000000000000e-01 6.000000000000e-01 6.000000000000e-01 6.000000000000e-01 6.000000000000e-01 6.000000000000e-01 6.000000000000e-01 6.000000000000e-01 6.000000000000e-01 6.000000000000e-01 6.000000000000e-01 6.000000000000e-01 6.000000000000e-01 6.000000000000e-01 6.000000000000e-01 6.000000000000e-01 6.000000000000e-01 6.000000000000e-01 6.000000000000e-01 6.000000000000e-01 6.000000000000e-01 6.000000000000e-01 6.000000000000e-01 6.000000000000e-01 6.000000000000e-01 6.000000000000e-01 6.000000000000e-01 6.000000000000e-01 6.000000000000e-01 6.000000000000e-01 6.000000000000e-01 
        </DataArray>
      </PointData>
      <CellData>
        <DataArray type="Float64" Name="DENSITY" format="ascii">
          8.973060464661e-07 9.084439799438e-07 9.194720425382e-07 9.304034683650e-07 9.412513755722e-07 9.520287820820e-07 9.627486212131e-07 9.734237572007e-07 9.840670006348e-07 9.946911238328e-07 8.973060464661e-07 9.084439799438e-07 9.194720425382e-07 9.304034683650e-07 9.412513755722e-07 9.520287820820e-07 9.627486212131e-07 9.734237572007e-07 9.840670006348e-07 9.946911238328e-07 8.973060464661e-07 9.084439799438e-07 9.194720425382e-07 9.304034683650e-07 9.412513755722e-07 9.520287820820e-07 9.627486212131e-07 9.734237572007e-07 9.840670006348e-07 9.946911238328e-07 8.973060464661e-07 9.084439799438e-07 9.194720425382e-07 9.304034683650e-07 9.412513755722e-07 9.520287820820e-07 9.627486212131e-07 9.734237572007e-07 9.840670006348e-07 9.946911238328e-07 8.973060464661e-07 9.084439799438e-07 9.194720425382e-07 9.304034683650e-07 9.412513755722e-07 9.520287820820e-07 9.627486212131e-07 9.734237572007e-07 9.840670006348e-07 9.946911238328e-07 8.973060464661e-07 9.084439799438e-07 9.194720425382e-07 9.304034683650e-07 9.412513755722e-07 9.520287820820e-07 9.627486212131e-07 9.734237572007e-07 9.840670006348e-07 9.946911238328e-07 8.973060464661e-07 9.084439799438e-07 9.194720425382e-07 9.304034683650e-07 9.412513755722e-07 9.520287820820e-07 9.627486212131e-07 9.734237572007e-07 9.840670006348e-07 9.946911238328e-07 8.973060464661e-07 9.084439799438e-07 9.194720425382e-07 9.304034683650e-07 9.412513755722e-07 9.520287820820e-07 9.627486212131e-07 9.734237572007e-07 9.840670006348e-07 9.946911238328e-07 8.973060464661e-07 9.084439799438e-07 9.194720425382e-07 9.304034683650e-07 9.412513755722e-07 9.520287820820e-07 9.627486212131e-07 9.734237572007e-07 9.840670006348e-07 9.946911238328e-07 8.973060464661e-07 9.084439799438e-07 9.194720425382e-07 9.304034683650e-07 9.412513755722e-07 9.520287820820e-07 9.627486212131e-07 9.734237572007e-07 9.840670006348e-07 9.946911238328e-07 
        </DataArray>
        <DataArray type="Float64" Name="VISCOSITY" format="ascii">
          1.278000000000e-09 1.278000000000e-09 1.278000000000e-09 1.278000000000e-09 1.278000000000e-09 1.278000000000e-09 1.278000000000e-09 1.278000000000e-09 1.278000000000e-09 1.278000000000e-09 1.278000000000e-09 1.278000000000e-09 1.278000000000e-09 1.278000000000e-09 1.278000000000e-09 1.278000000000e-09 1.278000000000e-09 1.278000000000e-09 1.278000000000e-09 1.278000000000e-09 1.278000000000e-09 1.278000000000e-09 1.278000000000e-09 1.278000000000e-09 1.278000000000e-09 1.278000000000e-09 1.278000000000e-09 1.278000000000e-09 1.278000000000e-09 1.278000000000e-09 1.278000000000e-09 1.278000000000e-09 1.278000000000e-09 1.278000000000e-09 1.278000000000e-09 1.278000000000e-09 1.278000000000e-09 1.278000000000e-09 1.278000000000e-09 1.278000000000e-09 1.278000000000e-09 1.278000000000e-09 1.278000000000e-09 1.278000000000e-09 1.278000000000e-09 1.278000000000e-09 1.278000000000e-09 1.278000000000e-09 1.278000000000e-09 1.278000000000e-09 1.278000000000e-09 1.278000000000e-09 1.278000000000e-09 1.278000000000e-09 1.278000000000e-09 1.278000000000e-09 1.278000000000e-09 1.278000000000e-09 1.278000000000e-09 1.278000000000e-09 1.278000000000e-09 1.278000000000e-09 1.278000000000e-09 1.278000000000e-09 1.278000000000e-09 1.278000000000e-09 1.278000000000e-09 1.278000000000e-09 1.278000000000e-09 1.278000000000e-09 1.278000000000e-09 1.278000000000e-09 1.278000000000e-09 1.278000000000e-09 1.278000000000e-09 1.278000000000e-09 1.278000000000e-09 1.278000000000e-09 1.278000000000e-09 1.278000000000e-09 1.278000000000e-09 1.278000000000e-09 1.278000000000e-09 1.278000000000e-09 1.278000000000e-09 1.278000000000e-09 1.278000000000e-09 1.278000000000e-09 1.278000000000e-09 1.278000000000e-09 1.278000000000e-09 1.278000000000e-09 1.278000000000e-09 1.278000000000e-09 1.278000000000e-09 1.278000000000e-09 1.278000000000e-09 1.278000000000e-09 1.278000000000e-09 1.278000000000e-09 
        </DataArray>
      </CellData>
    </Piece>
  </UnstructuredGrid>
</VTKFile>
