<?xml version="1.0"?>
<!-- Time step: 8 | Time: 8.000000000000e+01 -->
<VTKFile type="UnstructuredGrid" version="0.1" byte_order="LittleEndian">
  <UnstructuredGrid>
    <Piece NumberOfPoints="121" NumberOfCells="100">
      <Points>
        <DataArray type="Float64" NumberOfComponents="3" format="ascii">
          0.000000000000e+00 0.000000000000e+00 0.000000000000e+00
          1.000000000000e-01 0.000000000000e+00 0.000000000000e+00
          2.000000000000e-01 0.000000000000e+00 0.000000000000e+00
          3.000000000000e-01 0.000000000000e+00 0.000000000000e+00
          4.000000000000e-01 0.000000000000e+00 0.000000000000e+00
          5.000000000000e-01 0.000000000000e+00 0.000000000000e+00
          6.000000000000e-01 0.000000000000e+00 0.000000000000e+00
          7.000000000000e-01 0.000000000000e+00 0.000000000000e+00
          8.000000000000e-01 0.000000000000e+00 0.000000000000e+00
          9.000000000000e-01 0.000000000000e+00 0.000000000000e+00
          1.000000000000e+00 0.000000000000e+00 0.000000000000e+00
          0.000000000000e+00 1.000000000000e-01 0.000000000000e+00
          1.000000000000e-01 1.000000000000e-01 0.000000000000e+00
          2.000000000000e-01 1.000000000000e-01 0.000000000000e+00
          3.000000000000e-01 1.000000000000e-01 0.000000000000e+00
          4.000000000000e-01 1.000000000000e-01 0.000000000000e+00
          5.000000000000e-01 1.000000000000e-01 0.000000000000e+00
          6.000000000000e-01 1.000000000000e-01 0.000000000000e+00
          7.000000000000e-01 1.000000000000e-01 0.000000000000e+00
          8.000000000000e-01 1.000000000000e-01 0.000000000000e+00
          9.000000000000e-01 1.000000000000e-01 0.000000000000e+00
          1.000000000000e+00 1.000000000000e-01 0.000000000000e+00
          0.000000000000e+00 2.000000000000e-01 0.000000000000e+00
          1.000000000000e-01 2.000000000000e-01 0.000000000000e+00
          2.000000000000e-01 2.000000000000e-01 0.000000000000e+00
          3.000000000000e-01 2.000000000000e-01 0.000000000000e+00
          4.000000000000e-01 2.000000000000e-01 0.000000000000e+00
          5.000000000000e-01 2.000000000000e-01 0.000000000000e+00
          6.000000000000e-01 2.000000000000e-01 0.000000000000e+00
          7.000000000000e-01 2.000000000000e-01 0.000000000000e+00
          8.000000000000e-01 2.000000000000e-01 0.000000000000e+00
          9.000000000000e-01 2.000000000000e-01 0.000000000000e+00
          1.000000000000e+00 2.000000000000e-01 0.000000000000e+00
          0.000000000000e+00 3.000000000000e-01 0.000000000000e+00
          1.000000000000e-01 3.000000000000e-01 0.000000000000e+00
          2.000000000000e-01 3.000000000000e-01 0.000000000000e+00
          3.000000000000e-01 3.000000000000e-01 0.000000000000e+00
          4.000000000000e-01 3.000000000000e-01 0.000000000000e+00
          5.000000000000e-01 3.000000000000e-01 0.000000000000e+00
          6.000000000000e-01 3.000000000000e-01 0.000000000000e+00
          7.000000000000e-01 3.000000000000e-01 0.000000000000e+00
          8.000000000000e-01 3.000000000000e-01 0.000000000000e+00
          9.000000000000e-01 3.000000000000e-01 0.000000000000e+00
          1.000000000000e+00 3.000000000000e-01 0.000000000000e+00
          0.000000000000e+00 4.000000000000e-01 0.000000000000e+00
          1.000000000000e-01 4.000000000000e-01 0.000000000000e+00
          2.000000000000e-01 4.000000000000e-01 0.000000000000e+00
          3.000000000000e-01 4.000000000000e-01 0.000000000000e+00
          4.000000000000e-01 4.000000000000e-01 0.000000000000e+00
          5.000000000000e-01 4.000000000000e-01 0.000000000000e+00
          6.000000000000e-01 4.000000000000e-01 0.000000000000e+00
          7.000000000000e-01 4.000000000000e-01 0.000000000000e+00
          8.000000000000e-01 4.000000000000e-01 0.000000000000e+00
          9.000000000000e-01 4.000000000000e-01 0.000000000000e+00
          1.000000000000e+00 4.000000000000e-01 0.000000000000e+00
          0.000000000000e+00 5.000000000000e-01 0.000000000000e+00
          1.000000000000e-01 5.000000000000e-01 0.000000000000e+00
          2.000000000000e-01 5.000000000000e-01 0.000000000000e+00
          3.000000000000e-01 5.000000000000e-01 0.000000000000e+00
          4.000000000000e-01 5.000000000000e-01 0.000000000000e+00
          5.000000000000e-01 5.000000000000e-01 0.000000000000e+00
          6.000000000000e-01 5.000000000000e-01 0.000000000000e+00
          7.000000000000e-01 5.000000000000e-01 0.000000000000e+00
          8.000000000000e-01 5.000000000000e-01 0.000000000000e+00
          9.000000000000e-01 5.000000000000e-01 0.000000000000e+00
          1.000000000000e+00 5.000000000000e-01 0.000000000000e+00
          0.000000000000e+00 6.000000000000e-01 0.000000000000e+00
          1.000000000000e-01 6.000000000000e-01 0.000000000000e+00
          2.000000000000e-01 6.000000000000e-01 0.000000000000e+00
          3.000000000000e-01 6.000000000000e-01 0.000000000000e+00
          4.000000000000e-01 6.000000000000e-01 0.000000000000e+00
          5.000000000000e-01 6.000000000000e-01 0.000000000000e+00
          6.000000000000e-01 6.000000000000e-01 0.000000000000e+00
          7.000000000000e-01 6.000000000000e-01 0.000000000000e+00
          8.000000000000e-01 6.000000000000e-01 0.000000000000e+00
          9.000000000000e-01 6.000000000000e-01 0.000000000000e+00
          1.000000000000e+00 6.000000000000e-01 0.000000000000e+00
          0.000000000000e+00 7.000000000000e-01 0.000000000000e+00
          1.000000000000e-01 7.000000000000e-01 0.000000000000e+00
          2.000000000000e-01 7.000000000000e-01 0.000000000000e+00
          3.000000000000e-01 7.000000000000e-01 0.000000000000e+00
          4.000000000000e-01 7.000000000000e-01 0.000000000000e+00
          5.000000000000e-01 7.000000000000e-01 0.000000000000e+00
          6.000000000000e-01 7.000000000000e-01 0.000000000000e+00
          7.000000000000e-01 7.000000000000e-01 0.000000000000e+00
          8.000000000000e-01 7.000000000000e-01 0.000000000000e+00
          9.000000000000e-01 7.000000000000e-01 0.000000000000e+00
          1.000000000000e+00 7.000000000000e-01 0.000000000000e+00
          0.000000000000e+00 8.000000000000e-01 0.000000000000e+00
          1.000000000000e-01 8.000000000000e-01 0.000000000000e+00
          2.000000000000e-01 8.000000000000e-01 0.000000000000e+00
          3.000000000000e-01 8.000000000000e-01 0.000000000000e+00
          4.000000000000e-01 8.000000000000e-01 0.000000000000e+00
          5.000000000000e-01 8.000000000000e-01 0.000000000000e+00
          6.000000000000e-01 8.000000000000e-01 0.000000000000e+00
          7.000000000000e-01 8.000000000000e-01 0.000000000000e+00
          8.000000000000e-01 8.000000000000e-01 0.000000000000e+00
          9.000000000000e-01 8.000000000000e-01 0.000000000000e+00
          1.000000000000e+00 8.000000000000e-01 0.000000000000e+00
          0.000000000000e+00 9.000000000000e-01 0.000000000000e+00
          1.000000000000e-01 9.000000000000e-01 0.000000000000e+00
          2.000000000000e-01 9.000000000000e-01 0.000000000000e+00
          3.000000000000e-01 9.000000000000e-01 0.000000000000e+00
          4.000000000000e-01 9.000000000000e-01 0.000000000000e+00
          5.000000000000e-01 9.000000000000e-01 0.000000000000e+00
          6.000000000000e-01 9.000000000000e-01 0.000000000000e+00
          7.000000000000e-01 9.000000000000e-01 0.000000000000e+00
          8.000000000000e-01 9.000000000000e-01 0.000000000000e+00
          9.000000000000e-01 9.000000000000e-01 0.000000000000e+00
          1.000000000000e+00 9.000000000000e-01 0.000000000000e+00
          0.000000000000e+00 1.000000000000e+00 0.000000000000e+00
          1.000000000000e-01 1.000000000000e+00 0.000000000000e+00
          2.000000000000e-01 1.000000000000e+00 0.000000000000e+00
          3.000000000000e-01 1.000000000000e+00 0.000000000000e+00
          4.000000000000e-01 1.000000000000e+00 0.000000000000e+00
          5.000000000000e-01 1.000000000000e+00 0.000000000000e+00
          6.000000000000e-01 1.000000000000e+00 0.000000000000e+00
          7.000000000000e-01 1.000000000000e+00 0.000000000000e+00
          8.000000000000e-01 1.000000000000e+00 0.000000000000e+00
          9.000000000000e-01 1.000000000000e+00 0.000000000000e+00
          1.000000000000e+00 1.000000000000e+00 0.000000000000e+00
        </DataArray>
      </Points>
      <Cells>
        <DataArray type="Int64" Name="connectivity" format="ascii">
          0 1 12 11 
          1 2 13 12 
          2 3 14 13 
          3 4 15 14 
          4 5 16 15 
          5 6 17 16 
          6 7 18 17 
          7 8 19 18 
          8 9 20 19 
          9 10 21 20 
          11 12 23 22 
          12 13 24 23 
          13 14 25 24 
          14 15 26 25 
          15 16 27 26 
          16 17 28 27 
          17 18 29 28 
          18 19 30 29 
          19 20 31 30 
          20 21 32 31 
          22 23 34 33 
          23 24 35 34 
          24 25 36 35 
          25 26 37 36 
          26 27 38 37 
          27 28 39 38 
          28 29 40 39 
          29 30 41 40 
          30 31 42 41 
          31 32 43 42 
          33 34 45 44 
          34 35 46 45 
          35 36 47 46 
          36 37 48 47 
          37 38 49 48 
          38 39 50 49 
          39 40 51 50 
          40 41 52 51 
          41 42 53 52 
          42 43 54 53 
          44 45 56 55 
          45 46 57 56 
          46 47 58 57 
          47 48 59 58 
          48 49 60 59 
          49 50 61 60 
          50 51 62 61 
          51 52 63 62 
          52 53 64 63 
          53 54 65 64 
          55 56 67 66 
          56 57 68 67 
          57 58 69 68 
          58 59 70 69 
          59 60 71 70 
          60 61 72 71 
          61 62 73 72 
          62 63 74 73 
          63 64 75 74 
          64 65 76 75 
          66 67 78 77 
          67 68 79 78 
          68 69 80 79 
          69 70 81 80 
          70 71 82 81 
          71 72 83 82 
          72 73 84 83 
          73 74 85 84 
          74 75 86 85 
          75 76 87 86 
          77 78 89 88 
          78 79 90 89 
          79 80 91 90 
          80 81 92 91 
          81 82 93 92 
          82 83 94 93 
          83 84 95 94 
          84 85 96 95 
          85 86 97 96 
          86 87 98 97 
          88 89 100 99 
          89 90 101 100 
          90 91 102 101 
          91 92 103 102 
          92 93 104 103 
          93 94 105 104 
          94 95 106 105 
          95 96 107 106 
          96 97 108 107 
          97 98 109 108 
          99 100 111 110 
          100 101 112 111 
          101 102 113 112 
          102 103 114 113 
          103 104 115 114 
          104 105 116 115 
          105 106 117 116 
          106 107 118 117 
          107 108 119 118 
          108 109 120 119 
        </DataArray>
        <DataArray type="Int64" Name="offsets" format="ascii">
          4 8 12 16 20 24 28 32 36 40 44 48 52 56 60 64 68 72 76 80 84 88 92 96 100 104 108 112 116 120 124 128 132 136 140 144 148 152 156 160 164 168 172 176 180 184 188 192 196 200 204 208 212 216 220 224 228 232 236 240 244 248 252 256 260 264 268 272 276 280 284 288 292 296 300 304 308 312 316 320 324 328 332 336 340 344 348 352 356 360 364 368 372 376 380 384 388 392 396 400 
        </DataArray>
        <DataArray type="UInt8" Name="types" format="ascii">
          9 9 9 9 9 9 9 9 9 9 9 9 9 9 9 9 9 9 9 9 9 9 9 9 9 9 9 9 9 9 9 9 9 9 9 9 9 9 9 9 9 9 9 9 9 9 9 9 9 9 9 9 9 9 9 9 9 9 9 9 9 9 9 9 9 9 9 9 9 9 9 9 9 9 9 9 9 9 9 9 9 9 9 9 9 9 9 9 9 9 9 9 9 9 9 9 9 9 9 9 
        </DataArray>
      </Cells>
      <PointData Scalars="PRESSURE1">
        <DataArray type="Float64" Name="PRESSURE1" format="ascii">
          1.254560208716e-03 1.137639363700e-03 1.014091644474e-03 8.888225881040e-04 7.627150609308e-04 6.361109299249e-04 5.091858449472e-04 3.820471259797e-04 2.547682712576e-04 1.274042787579e-04 0.000000000000e+00 1.264926791961e-03 1.139594029508e-03 1.014908631510e-03 8.892668028731e-04 7.629908860467e-04 6.362931299687e-04 5.093084314706e-04 3.821279735045e-04 2.548175213789e-04 1.274276121931e-04 0.000000000000e+00 1.269776695957e-03 1.142917661857e-03 1.016648118168e-03 8.903104358589e-04 7.636691206024e-04 6.367513845368e-04 5.096203099516e-04 3.823348686403e-04 2.549439258503e-04 1.274875802087e-04 0.000000000000e+00 1.273087266384e-03 1.145705003836e-03 1.018660902956e-03 8.916909208940e-04 7.646269643934e-04 6.374204112487e-04 5.100834557602e-04 3.826447968275e-04 2.551341051961e-04 1.275779848390e-04 0.000000000000e+00 1.275776329794e-03 1.148138284368e-03 1.020644889245e-03 8.932030692150e-04 7.657398829020e-04 6.382225492972e-04 5.106478986412e-04 3.830256855385e-04 2.553688073343e-04 1.276897688336e-04 0.000000000000e+00 1.278233387134e-03 1.150417522957e-03 1.022586949141e-03 8.947503205119e-04 7.669149821450e-04 6.390847333206e-04 5.112603293787e-04 3.834409570434e-04 2.556253137773e-04 1.278120731592e-04 0.000000000000e+00 1.280712848717e-03 1.152712453825e-03 1.024534416112e-03 8.962950490891e-04 7.680841105376e-04 6.399407031185e-04 5.118676455806e-04 3.838525152620e-04 2.558794507914e-04 1.279332311163e-04 0.000000000000e+00 1.283480181727e-03 1.155196492799e-03 1.026530535918e-03 8.977940715084e-04 7.691760017295e-04 6.407231994671e-04 5.124166105142e-04 3.842223863896e-04 2.561071875940e-04 1.280416590720e-04 0.000000000000e+00 1.286973404896e-03 1.158078755790e-03 1.028539191546e-03 8.991307477591e-04 7.700904885358e-04 6.413573672825e-04 5.128540144899e-04 3.845145409691e-04 2.562862930548e-04 1.281267629585e-04 0.000000000000e+00 1.292292283461e-03 1.161519461224e-03 1.030153522827e-03 9.000774379311e-04 7.706986057676e-04 6.417659878626e-04 5.131313436586e-04 3.846982587527e-04 2.563984586012e-04 1.281799587087e-04 0.000000000000e+00 1.304614354960e-03 1.162643294317e-03 1.030712692859e-03 9.003772515744e-04 7.708849449952e-04 6.418890698561e-04 5.132141550609e-04 3.847528740200e-04 2.564317287424e-04 1.281957212421e-04 0.000000000000e+00 
        </DataArray>
        <DataArray type="Float64" Name="TEMPERATURE1" format="ascii">
          5.231500000000e+02 4.708350000000e+02 4.185200000000e+02 3.662050000000e+02 3.138900000000e+02 2.615750000000e+02 2.092600000000e+02 1.569450000000e+02 1.046300000000e+02 5.231500000000e+01 0.000000000000e+00 5.231500000000e+02 4.708350000000e+02 4.185200000000e+02 3.662050000000e+02 3.138900000000e+02 2.615750000000e+02 2.092600000000e+02 1.569450000000e+02 1.046300000000e+02 5.231500000000e+01 0.000000000000e+00 5.231500000000e+02 4.708350000000e+02 4.185200000000e+02 3.662050000000e+02 3.138900000000e+02 2.615750000000e+02 2.092600000000e+02 1.569450000000e+02 1.046300000000e+02 5.231500000000e+01 0.000000000000e+00 5.231500000000e+02 4.708350000000e+02 4.185200000000e+02 3.662050000000e+02 3.138900000000e+02 2.615750000000e+02 2.092600000000e+02 1.569450000000e+02 1.046300000000e+02 5.231500000000e+01 0.000000000000e+00 5.231500000000e+02 4.708350000000e+02 4.185200000000e+02 3.662050000000e+02 3.138900000000e+02 2.615750000000e+02 2.092600000000e+02 1.569450000000e+02 1.046300000000e+02 5.231500000000e+01 0.000000000000e+00 5.231500000000e+02 4.708350000000e+02 4.185200000000e+02 3.662050000000e+02 3.138900000000e+02 2.615750000000e+02 2.092600000000e+02 1.569450000000e+02 1.046300000000e+02 5.231500000000e+01 0.000000000000e+00 5.231500000000e+02 4.708350000000e+02 4.185200000000e+02 3.662050000000e+02 3.138900000000e+02 2.615750000000e+02 2.092600000000e+02 1.569450000000e+02 1.046300000000e+02 5.231500000000e+01 0.000000000000e+00 5.231500000000e+02 4.708350000000e+02 4.185200000000e+02 3.662050000000e+02 3.138900000000e+02 2.615750000000e+02 2.092600000000e+02 1.569450000000e+02 1.046300000000e+02 5.231500000000e+01 0.000000000000e+00 5.231500000000e+02 4.708350000000e+02 4.185200000000e+02 3.662050000000e+02 3.138900000000e+02 2.615750000000e+02 2.092600000000e+02 1.569450000000e+02 1.046300000000e+02 5.231500000000e+01 0.000000000000e+00 5.231500000000e+02 4.708350000000e+02 4.185200000000e+02 3.662050000000e+02 3.138900000000e+02 2.615750000000e+02 2.092600000000e+02 1.569450000000e+02 1.046300000000e+02 5.231500000000e+01 0.000000000000e+00 5.231500000000e+02 4.708350000000e+02 4.185200000000e+02 3.662050000000e+02 3.138900000000e+02 2.615750000000e+02 2.092600000000e+02 1.569450000000e+02 1.046300000000e+02 5.231500000000e+01 0.000000000000e+00 
        </DataArray>
        <DataArray type="Float64" Name="STRESS_XX" format="ascii">
          -2.913325245286e-02 -2.858101909002e-02 -2.675585187695e-02 -2.383204521503e-02 -2.007392627958e-02 -1.579670843878e-02 -1.134066791585e-02 -7.064385799691e-03 -3.361053023329e-03 -6.936236071201e-04 2.665822204540e-04 -2.869134081959e-02 -2.814465999321e-02 -2.632203428664e-02 -2.341162343453e-02 -1.968601547478e-02 -1.546483588072e-02 -1.108613046932e-02 -6.899080537407e-03 -3.281282702366e-03 -6.766903638068e-04 2.606575853240e-04 -2.731784109977e-02 -2.677162531185e-02 -2.495700706644e-02 -2.208835457746e-02 -1.846535412634e-02 -1.442059736302e-02 -1.028447931721e-02 -6.377078718852e-03 -3.028305744913e-03 -6.230178181442e-04 2.417472244764e-04 -2.481250411625e-02 -2.426318263257e-02 -2.246037911191e-02 -1.966916120895e-02 -1.623721805631e-02 -1.251678415990e-02 -8.821151846021e-03 -5.418811114907e-03 -2.558219774740e-03 -5.206926586410e-04 2.065528273791e-04 -2.082199338444e-02 -2.026511116281e-02 -1.848079901650e-02 -1.582382701867e-02 -1.271434849663e-02 -9.521859640182e-03 -6.522095497884e-03 -3.904734926239e-03 -1.804019322701e-03 -3.511087076397e-04 1.499420890012e-04 -1.479618946225e-02 -1.422588380032e-02 -1.248133293852e-02 -1.007239046932e-02 -7.511237958786e-03 -5.153470954147e-03 -3.192056594388e-03 -1.704849915269e-03 -6.896786630869e-04 -9.088251147008e-05 6.605408884537e-05 -5.896319955748e-03 -5.306966754527e-03 -3.673075092489e-03 -1.772611548321e-03 -1.874479172439e-04 8.455454052177e-04 1.304243359466e-03 1.257828762903e-03 8.376389979110e-04 2.826987211724e-04 -4.924646929698e-05 7.205568866106e-03 7.812256920344e-03 9.104031602629e-03 9.862689261832e-03 9.637046498090e-03 8.556423036053e-03 6.892379106208e-03 4.883012976730e-03 2.735759927586e-03 7.777191343651e-04 -1.922882970732e-04 2.681387190971e-02 2.739504689655e-02 2.753836436991e-02 2.558477357916e-02 2.201074353870e-02 1.763667963005e-02 1.306041793941e-02 8.671030487706e-03 4.695909772163e-03 1.341618790350e-03 -3.335241755692e-04 5.753431540591e-02 5.800028078715e-02 5.351761735174e-02 4.535187770731e-02 3.615952897316e-02 2.703427104095e-02 1.862010695562e-02 1.138811722038e-02 5.695375802274e-03 1.634128144998e-03 -3.485939902338e-04 1.219422656268e-01 1.053494794313e-01 8.510436767137e-02 6.676934527213e-02 4.999352165412e-02 3.488548631301e-02 2.167835354931e-02 1.080007447354e-02 2.990546124200e-03 -5.519730800431e-04 -2.297803439459e-04 
        </DataArray>
        <DataArray type="Float64" Name="STRESS_XY" format="ascii">
          8.545055470583e-08 -1.134142635932e-06 -2.709428348815e-06 -4.297106805070e-06 -5.930935667522e-06 -7.451236252253e-06 -8.678967288249e-06 -9.456964779545e-06 -9.726206192428e-06 -1.092770500389e-05 2.454523666018e-05 -3.555579407438e-06 -1.324252638121e-03 -2.523972718813e-03 -3.495006562020e-03 -4.170053371987e-03 -4.514645821008e-03 -4.511772464126e-03 -4.139604389062e-03 -3.348399180002e-03 -2.042732776257e-03 -7.043932040632e-05 -7.827251714368e-06 -2.649394600894e-03 -5.034967464648e-03 -6.945441691224e-03 -8.250341012508e-03 -8.892133007692e-03 -8.850993582957e-03 -8.096874727617e-03 -6.540571871968e-03 -3.993959569093e-03 -1.404230561338e-04 -1.288065006253e-05 -3.975042294967e-03 -7.518068214472e-03 -1.029908077177e-02 -1.213659507518e-02 -1.297562249986e-02 -1.282240221953e-02 -1.166522862605e-02 -9.396654384787e-03 -5.744840279071e-03 -2.085623145522e-04 -1.969142819795e-05 -5.303900813689e-03 -9.952674154348e-03 -1.348267348896e-02 -1.568914882403e-02 -1.656514039655e-02 -1.618558732811e-02 -1.459279598199e-02 -1.169281995201e-02 -7.152365031463e-03 -2.707142762364e-04 -2.993552332289e-05 -6.639231880747e-03 -1.229885438905e-02 -1.637164882357e-02 -1.869526743801e-02 -1.938510203546e-02 -1.863388927392e-02 -1.657024939424e-02 -1.315087761081e-02 -8.027930842699e-03 -3.182500170293e-04 -4.732603674053e-05 -7.978810694622e-03 -1.445838346391e-02 -1.871976217508e-02 -2.079712971224e-02 -2.103612268211e-02 -1.977770519370e-02 -1.723774622405e-02 -1.345017673857e-02 -8.137472698086e-03 -3.351163424643e-04 -8.160774636490e-05 -9.295280480332e-03 -1.616591590840e-02 -1.999985616608e-02 -2.136275441357e-02 -2.092825465539e-02 -1.913782986727e-02 -1.622517707780e-02 -1.228455558956e-02 -7.228983575944e-03 -2.922791458864e-04 -1.653999854137e-04 -1.046317830460e-02 -1.665890577822e-02 -1.907038909598e-02 -1.930524001885e-02 -1.821532171298e-02 -1.615192463047e-02 -1.322788464852e-02 -9.498889841628e-03 -5.131645437377e-03 -1.342089749535e-04 -5.215106454160e-04 -1.090875793581e-02 -1.354933648560e-02 -1.370449205430e-02 -1.299652772492e-02 -1.180127531690e-02 -1.017619902698e-02 -8.045472886018e-03 -5.301743982123e-03 -2.090600399177e-03 2.464024827322e-04 -2.229258532613e-03 -2.309820028925e-03 -1.185595193725e-03 -8.071460274767e-04 -6.148662537282e-04 -4.937502103370e-04 -3.982712424108e-04 -2.912372068376e-04 -1.136739380136e-04 2.548309731360e-04 3.149266688872e-04 
        </DataArray>
        <DataArray type="Float64" Name="STRESS_YY" format="ascii">
          -6.707796553860e-02 -4.691054387770e-02 -3.013448492970e-02 -1.638923215230e-02 -5.124022081432e-03 4.351674772206e-03 1.282720341633e-02 2.117383074351e-02 3.035872089547e-02 4.148817026072e-02 5.587454579002e-02 -6.639647408404e-02 -4.626669626914e-02 -2.958181842059e-02 -1.596953281416e-02 -4.862389679393e-03 4.442921083861e-03 1.273905090794e-02 2.088905261752e-02 2.984141885688e-02 4.067783921628e-02 5.468906461308e-02 -6.437616529997e-02 -4.434564526576e-02 -2.793907089642e-02 -1.473350756034e-02 -4.104734216574e-03 4.691734480326e-03 1.245910933200e-02 2.003485591853e-02 2.830875295357e-02 3.828309983250e-02 5.117590104750e-02 -6.100993525459e-02 -4.115669708024e-02 -2.524161718263e-02 -1.274267532023e-02 -2.925338177782e-03 5.031586045962e-03 1.194999884251e-02 1.862156417196e-02 2.583029628219e-02 3.442914592566e-02 4.548412112502e-02 -5.628907008002e-02 -3.671354966691e-02 -2.155544978444e-02 -1.011140257862e-02 -1.458148803325e-03 5.345779265073e-03 1.114667549756e-02 1.666554180221e-02 2.252617188723e-02 2.934174525979e-02 3.790048055710e-02 -5.019561494759e-02 -3.104058759140e-02 -1.699640046643e-02 -7.029006130265e-03 9.035877503610e-05 5.465825818843e-03 9.959574759747e-03 1.419117993649e-02 1.857105623855e-02 2.336824351858e-02 2.890609463930e-02 -4.269702406745e-02 -2.418781541953e-02 -1.177401834402e-02 -3.798623301360e-03 1.432317414441e-03 5.187978199581e-03 8.296950142739e-03 1.124229366147e-02 1.419506959380e-02 1.699497327164e-02 1.925006263634e-02 -3.373851600117e-02 -1.627778468185e-02 -6.294544656424e-03 -8.955177314966e-04 2.218005033411e-03 4.335928010624e-03 6.129551998163e-03 7.917002417704e-03 9.676754021454e-03 1.083962260718e-02 1.002921547959e-02 -2.321603650395e-02 -7.656932463974e-03 -1.408180031805e-03 1.001433142385e-03 2.150602656632e-03 2.905214099022e-03 3.621604841980e-03 4.455125455948e-03 5.335289652816e-03 5.569956186935e-03 2.750976729718e-03 -1.046487650715e-02 2.208207280415e-04 1.182376825449e-03 1.311794335716e-03 1.299207674024e-03 1.280107385730e-03 1.308799771003e-03 1.421569119384e-03 1.617327416450e-03 1.640259797517e-03 -6.673617583124e-04 2.592960308944e-03 2.110938022800e-03 1.203662062171e-03 8.718734359087e-04 6.536708534494e-04 4.634586397546e-04 2.732496271469e-04 7.206569772034e-05 -1.284169567843e-04 -2.272355973883e-04 -2.306113049387e-04 
        </DataArray>
        <DataArray type="Float64" Name="STRESS_ZZ" format="ascii">
          -1.826694653974e-01 -1.610729588903e-01 -1.401119810420e-01 -1.197306532102e-01 -9.984304450830e-02 -8.033656009997e-02 -6.107647934986e-02 -4.190899651686e-02 -2.266191963836e-02 -3.142246003919e-03 1.684233840314e-02 -1.823324444711e-01 -1.607488968787e-01 -1.398160358122e-01 -1.194786168746e-01 -9.964818154625e-02 -8.020962443906e-02 -6.102656386841e-02 -4.194483837597e-02 -2.279317915365e-02 -3.380265344257e-03 1.648491665952e-02 -1.813143019199e-01 -1.597606711733e-01 -1.389137033889e-01 -1.187108286413e-01 -9.905468650287e-02 -7.982170886481e-02 -6.087005099556e-02 -4.204449684010e-02 -2.317708583740e-02 -4.082585395692e-03 1.542529448159e-02 -1.795528318113e-01 -1.580514539138e-01 -1.373554788884e-01 -1.173878209588e-01 -9.803242687023e-02 -7.914860943418e-02 -6.058378590105e-02 -4.218100408288e-02 -2.377959704777e-02 -5.208074019895e-03 1.370720218572e-02 -1.769394190393e-01 -1.555190882489e-01 -1.350557546403e-01 -1.154448388792e-01 -9.653540918999e-02 -7.815587411253e-02 -6.013506600010e-02 -4.231358793721e-02 -2.454457423064e-02 -6.683419034354e-03 1.141512679383e-02 -1.733036413230e-01 -1.520054314175e-01 -1.318882000215e-01 -1.127946889799e-01 -9.450992375513e-02 -7.680934354059e-02 -5.949218455039e-02 -4.239593099363e-02 -2.539680672736e-02 -8.397401697866e-03 8.691644618442e-03 -1.683841032070e-01 -1.472739246522e-01 -1.276790080310e-01 -1.093356404549e-01 -9.191019915084e-02 -7.509299291856e-02 -5.864208194934e-02 -4.239179327269e-02 -2.625140742249e-02 -1.019730840216e-02 5.760244850114e-03 -1.617659841405e-01 -1.409651483285e-01 -1.222020339161e-01 -1.049741185409e-01 -8.872714454055e-02 -7.303534468600e-02 -5.761586066869e-02 -4.230182538167e-02 -2.703746581529e-02 -1.189540747754e-02 2.951078154755e-03 -1.527267493783e-01 -1.325040556702e-01 -1.152058246986e-01 -9.968840798354e-02 -8.503525614140e-02 -7.074048188128e-02 -5.651783316558e-02 -4.220398321690e-02 -2.775186017251e-02 -1.330713750681e-02 7.252357662447e-04 -1.396852683304e-01 -1.209591595454e-01 -1.066348817468e-01 -9.366516838709e-02 -8.104603900585e-02 -6.840873647199e-02 -5.554376798201e-02 -4.229892409807e-02 -2.856740903438e-02 -1.439829361725e-02 -3.047867245639e-04 -1.164455322193e-01 -1.061873647638e-01 -9.715247107994e-02 -8.737190438759e-02 -7.708950224773e-02 -6.629836651417e-02 -5.493695904706e-02 -4.288018794862e-02 -2.990258124978e-02 -1.561437260323e-02 -1.381174946654e-04 
        </DataArray>
        <DataArray type="Float64" Name="STRAIN_XX" format="ascii">
          9.504622706093e-03 8.201881987637e-03 7.017284186407e-03 5.936580494939e-03 4.938088271302e-03 3.995324150455e-03 3.078883564962e-03 2.157047330110e-03 1.194815552359e-03 1.515813864685e-04 -1.026118239881e-03 9.511115940331e-03 8.208833711959e-03 7.025819142056e-03 5.947004355814e-03 4.950038852044e-03 4.008010720278e-03 3.091550638991e-03 2.169499294768e-03 1.207879304127e-03 1.673641654565e-04 -1.004358895069e-03 9.533114241247e-03 8.232655219993e-03 7.054462153293e-03 5.981391251573e-03 4.988863432833e-03 4.048640235825e-03 3.131487770565e-03 2.207983026553e-03 1.247305434297e-03 2.141637071815e-04 -9.399338778215e-04 9.579163143024e-03 8.282131079317e-03 7.112553795685e-03 6.049250365464e-03 5.063512926576e-03 4.124827278884e-03 3.204353536740e-03 2.275754802780e-03 1.313704307378e-03 2.901712271252e-04 -8.357544840878e-04 9.664412064351e-03 8.372865248187e-03 7.216544871948e-03 6.167015019937e-03 5.188922804827e-03 4.248772324479e-03 3.318898173946e-03 2.377690900679e-03 1.407748637158e-03 3.920001630823e-04 -6.973685769656e-04 9.812366067567e-03 8.529210090588e-03 7.391853676564e-03 6.358999431606e-03 5.385632930250e-03 4.435839731542e-03 3.485246016324e-03 2.518971685804e-03 1.529488880169e-03 5.142130924912e-04 -5.339651280227e-04 1.005876753460e-02 8.788430727000e-03 7.676557753334e-03 6.658663694217e-03 5.678075076366e-03 4.700957134329e-03 3.710962995307e-03 2.702119459346e-03 1.676940968882e-03 6.487623457298e-04 -3.596351769159e-04 1.046014375755e-02 9.210029848735e-03 8.128470722590e-03 7.108945244931e-03 6.089211826201e-03 5.050918954222e-03 3.993367224160e-03 2.920966184091e-03 1.843104450749e-03 7.845268854987e-04 -1.945893517799e-04 1.111441941307e-02 9.898515873181e-03 8.836545037573e-03 7.755006477691e-03 6.626657123054e-03 5.470967141178e-03 4.307225068404e-03 3.149405610285e-03 2.008671472765e-03 9.068277707769e-04 -6.554228211229e-05 1.220883137415e-02 1.107844154440e-02 9.914202325150e-03 8.605817139177e-03 7.255582779652e-03 5.908376655564e-03 4.591097019949e-03 3.323483510190e-03 2.121029537507e-03 9.924832519484e-04 -2.711878350998e-06 1.475733986666e-02 1.309513797398e-02 1.128256620841e-02 9.542077359887e-03 7.867044336781e-03 6.263762317873e-03 4.742852684537e-03 3.323063864229e-03 2.036241218389e-03 9.324342561972e-04 -5.674366860224e-06 
        </DataArray>
        <DataArray type="Float64" Name="STRAIN_XY" format="ascii">
          1.057959248739e-08 -1.404176596869e-07 -3.354530336629e-07 -5.320227472944e-07 -7.343063207408e-07 -9.225340121837e-07 -1.074538807117e-06 -1.170862306039e-06 -1.204196957158e-06 -1.352953952862e-06 3.038934062689e-06 -4.402145933019e-07 -1.639550885292e-04 -3.124918604244e-04 -4.327150981549e-04 -5.162923222460e-04 -5.589561492677e-04 -5.586004003203e-04 -5.125224481695e-04 -4.145637080002e-04 -2.529097722984e-04 -8.721058716973e-06 -9.690883074932e-07 -3.280202839202e-04 -6.233769241945e-04 -8.599118284372e-04 -1.021470792025e-03 -1.100930753333e-03 -1.095837300747e-03 -1.002470204372e-03 -8.097850889103e-04 -4.944902323639e-04 -1.738571171180e-05 -1.594747150599e-06 -4.921480936626e-04 -9.308084456013e-04 -1.275124286029e-03 -1.502626056927e-03 -1.606505642840e-03 -1.587535512895e-03 -1.444266401320e-03 -1.163395304783e-03 -7.112659393135e-04 -2.582200084932e-05 -2.437986348317e-06 -6.566734340758e-04 -1.232235847681e-03 -1.669283384348e-03 -1.942466044880e-03 -2.050922144334e-03 -2.003929859671e-03 -1.806727121579e-03 -1.447682470249e-03 -8.855309086573e-04 -3.351700562927e-05 -3.706302887596e-06 -8.220001376163e-04 -1.522715305311e-03 -2.026966044822e-03 -2.314652158991e-03 -2.400060252009e-03 -2.307052957723e-03 -2.051554686906e-03 -1.628203894672e-03 -9.939342948104e-04 -3.940238306077e-05 -5.859414072636e-06 -9.878527526675e-04 -1.790085571722e-03 -2.317684840724e-03 -2.574882726277e-03 -2.604472332070e-03 -2.448668262077e-03 -2.134197151549e-03 -1.665259977156e-03 -1.007496619763e-03 -4.149059478130e-05 -1.010381621661e-05 -1.150844249946e-03 -2.001494350563e-03 -2.476172668182e-03 -2.644912451204e-03 -2.591117243049e-03 -2.369445602614e-03 -2.008831447728e-03 -1.520944977755e-03 -8.950170141645e-04 -3.618694187166e-05 -2.047809343218e-05 -1.295441123426e-03 -2.062531191589e-03 -2.361095792836e-03 -2.390172573762e-03 -2.255230307322e-03 -1.999762097106e-03 -1.637738099340e-03 -1.176053028011e-03 -6.353465779610e-04 -1.661634927996e-05 -6.456798467055e-05 -1.350608125386e-03 -1.677536898217e-03 -1.696746635294e-03 -1.609093908800e-03 -1.461110277330e-03 -1.259910355721e-03 -9.961061668403e-04 -6.564063977867e-04 -2.588362398982e-04 3.050697405256e-05 -2.760034373712e-04 -2.859777178669e-04 -1.467879763660e-04 -9.993236530664e-05 -7.612629808063e-05 -6.113097842268e-05 -4.930977286990e-05 -3.605793989418e-05 -1.407391613502e-05 3.155050143588e-05 3.899092090985e-05 
        </DataArray>
        <DataArray type="Float64" Name="STRAIN_YY" format="ascii">
          7.155664276975e-03 7.067197119828e-03 6.808130711714e-03 6.397326065489e-03 5.863558531187e-03 5.242605015897e-03 4.574989885526e-03 3.905127401832e-03 3.282230128285e-03 2.762835292573e-03 2.416279504902e-03 7.176988643008e-03 7.086993371068e-03 6.824022981384e-03 6.407705203742e-03 5.867691877472e-03 5.240395675228e-03 4.566442819489e-03 3.889717061501e-03 3.258332257794e-03 2.727406472795e-03 2.365018682839e-03 7.239027505045e-03 7.144739699037e-03 6.869858201913e-03 6.436691305015e-03 5.877854189152e-03 5.231784588032e-03 4.539424210754e-03 3.843007551725e-03 3.187218591822e-03 2.622637656984e-03 2.213132787413e-03 7.338369786841e-03 7.236342089699e-03 6.940381915117e-03 6.478032825242e-03 5.887581680961e-03 5.211154958295e-03 4.490186674602e-03 3.763968511014e-03 3.071088634711e-03 2.453732663296e-03 1.967142601005e-03 7.468831126053e-03 7.354628578886e-03 7.026209348219e-03 6.520641294797e-03 5.885735166793e-03 5.169149970995e-03 4.412679235569e-03 3.651088983869e-03 2.913903331106e-03 2.230129218209e-03 1.639569518679e-03 7.620973061332e-03 7.488299855903e-03 7.112349496265e-03 6.547399414500e-03 5.856207966153e-03 5.093224769870e-03 4.299394623961e-03 3.503011629008e-03 2.721820088366e-03 1.966444703875e-03 1.251370715577e-03 7.780628708636e-03 7.619616285833e-03 7.175070790143e-03 6.533243919029e-03 5.778346263565e-03 4.969774402552e-03 4.143844843795e-03 3.320205381638e-03 2.503829529580e-03 1.683331722664e-03 8.350839581952e-04 7.925509932436e-03 7.718741559075e-03 7.175225525601e-03 6.442961002487e-03 5.629937830769e-03 4.789650214553e-03 3.946144593662e-03 3.108784578056e-03 2.272785037513e-03 1.407406624292e-03 4.381704058232e-04 8.017329844601e-03 7.728631436578e-03 7.044616098419e-03 6.233180641128e-03 5.397219830354e-03 4.559019274971e-03 3.722917590944e-03 2.888421013081e-03 2.048252132044e-03 1.168581990565e-03 1.254030120245e-04 7.999357589056e-03 7.501617826454e-03 6.674401721142e-03 5.879526263793e-03 5.097562889706e-03 4.314071286431e-03 3.519444670425e-03 2.706506722985e-03 1.868578923147e-03 9.928628304377e-04 -2.244512113681e-05 7.369049537461e-03 6.704180648692e-03 6.088713004035e-03 5.462710055740e-03 4.812672620549e-03 4.132874890481e-03 3.417774822689e-03 2.658949035250e-03 1.843162551471e-03 9.525370527425e-04 -5.725807302632e-06 
        </DataArray>
        <DataArray type="Float64" Name="STRAIN_ZZ" format="ascii">
          0.000000000000e+00 0.000000000000e+00 0.000000000000e+00 0.000000000000e+00 0.000000000000e+00 0.000000000000e+00 0.000000000000e+00 0.000000000000e+00 0.000000000000e+00 0.000000000000e+00 0.000000000000e+00 0.000000000000e+00 0.000000000000e+00 0.000000000000e+00 0.000000000000e+00 0.000000000000e+00 0.000000000000e+00 0.000000000000e+00 0.000000000000e+00 0.000000000000e+00 0.000000000000e+00 0.000000000000e+00 0.000000000000e+00 0.000000000000e+00 0.000000000000e+00 0.000000000000e+00 0.000000000000e+00 0.000000000000e+00 0.000000000000e+00 0.000000000000e+00 0.000000000000e+00 0.000000000000e+00 0.000000000000e+00 0.000000000000e+00 0.000000000000e+00 0.000000000000e+00 0.000000000000e+00 0.000000000000e+00 0.000000000000e+00 0.000000000000e+00 0.000000000000e+00 0.000000000000e+00 0.000000000000e+00 0.000000000000e+00 0.000000000000e+00 0.000000000000e+00 0.000000000000e+00 0.000000000000e+00 0.000000000000e+00 0.000000000000e+00 0.000000000000e+00 0.000000000000e+00 0.000000000000e+00 0.000000000000e+00 0.000000000000e+00 0.000000000000e+00 0.000000000000e+00 0.000000000000e+00 0.000000000000e+00 0.000000000000e+00 0.000000000000e+00 0.000000000000e+00 0.000000000000e+00 0.000000000000e+00 0.000000000000e+00 0.000000000000e+00 0.000000000000e+00 0.000000000000e+00 0.000000000000e+00 0.000000000000e+00 0.000000000000e+00 0.000000000000e+00 0.000000000000e+00 0.000000000000e+00 0.000000000000e+00 0.000000000000e+00 0.000000000000e+00 0.000000000000e+00 0.000000000000e+00 0.000000000000e+00 0.000000000000e+00 0.000000000000e+00 0.000000000000e+00 0.000000000000e+00 0.000000000000e+00 0.000000000000e+00 0.000000000000e+00 0.000000000000e+00 0.000000000000e+00 0.000000000000e+00 0.000000000000e+00 0.000000000000e+00 0.000000000000e+00 0.000000000000e+00 0.000000000000e+00 0.000000000000e+00 0.000000000000e+00 0.000000000000e+00 0.000000000000e+00 0.000000000000e+00 0.000000000000e+00 0.000000000000e+00 0.000000000000e+00 0.000000000000e+00 0.000000000000e+00 0.000000000000e+00 0.000000000000e+00 0.000000000000e+00 0.000000000000e+00 0.000000000000e+00 0.000000000000e+00 0.000000000000e+00 0.000000000000e+00 0.000000000000e+00 0.000000000000e+00 0.000000000000e+00 0.000000000000e+00 0.000000000000e+00 0.000000000000e+00 0.000000000000e+00 0.000000000000e+00 
        </DataArray>
        <DataArray type="Float64" Name="STRAIN_PLS" format="ascii">
          0.000000000000e+00 0.000000000000e+00 0.000000000000e+00 0.000000000000e+00 0.000000000000e+00 0.000000000000e+00 0.000000000000e+00 0.000000000000e+00 0.000000000000e+00 0.000000000000e+00 0.000000000000e+00 0.000000000000e+00 0.000000000000e+00 0.000000000000e+00 0.000000000000e+00 0.000000000000e+00 0.000000000000e+00 0.000000000000e+00 0.000000000000e+00 0.000000000000e+00 0.000000000000e+00 0.000000000000e+00 0.000000000000e+00 0.000000000000e+00 0.000000000000e+00 0.000000000000e+00 0.000000000000e+00 0.000000000000e+00 0.000000000000e+00 0.000000000000e+00 0.000000000000e+00 0.000000000000e+00 0.000000000000e+00 0.000000000000e+00 0.000000000000e+00 0.000000000000e+00 0.000000000000e+00 0.000000000000e+00 0.000000000000e+00 0.000000000000e+00 0.000000000000e+00 0.000000000000e+00 0.000000000000e+00 0.000000000000e+00 0.000000000000e+00 0.000000000000e+00 0.000000000000e+00 0.000000000000e+00 0.000000000000e+00 0.000000000000e+00 0.000000000000e+00 0.000000000000e+00 0.000000000000e+00 0.000000000000e+00 0.000000000000e+00 0.000000000000e+00 0.000000000000e+00 0.000000000000e+00 0.000000000000e+00 0.000000000000e+00 0.000000000000e+00 0.000000000000e+00 0.000000000000e+00 0.000000000000e+00 0.000000000000e+00 0.000000000000e+00 0.000000000000e+00 0.000000000000e+00 0.000000000000e+00 0.000000000000e+00 0.000000000000e+00 0.000000000000e+00 0.000000000000e+00 0.000000000000e+00 0.000000000000e+00 0.000000000000e+00 0.000000000000e+00 0.000000000000e+00 0.000000000000e+00 0.000000000000e+00 0.000000000000e+00 0.000000000000e+00 0.000000000000e+00 0.000000000000e+00 0.000000000000e+00 0.000000000000e+00 0.000000000000e+00 0.000000000000e+00 0.000000000000e+00 0.000000000000e+00 0.000000000000e+00 0.000000000000e+00 0.000000000000e+00 0.000000000000e+00 0.000000000000e+00 0.000000000000e+00 0.000000000000e+00 0.000000000000e+00 0.000000000000e+00 0.000000000000e+00 0.000000000000e+00 0.000000000000e+00 0.000000000000e+00 0.000000000000e+00 0.000000000000e+00 0.000000000000e+00 0.000000000000e+00 0.000000000000e+00 0.000000000000e+00 0.000000000000e+00 0.000000000000e+00 0.000000000000e+00 0.000000000000e+00 0.000000000000e+00 0.000000000000e+00 0.000000000000e+00 0.000000000000e+00 0.000000000000e+00 0.000000000000e+00 0.000000000000e+00 0.000000000000e+00 
        </DataArray>
        <DataArray type="Float64" Name="DILATANCY" format="ascii">
          0.000000000000e+00 0.000000000000e+00 0.000000000000e+00 0.000000000000e+00 0.000000000000e+00 0.000000000000e+00 0.000000000000e+00 0.000000000000e+00 0.000000000000e+00 0.000000000000e+00 0.000000000000e+00 0.000000000000e+00 0.000000000000e+00 0.000000000000e+00 0.000000000000e+00 0.000000000000e+00 0.000000000000e+00 0.000000000000e+00 0.000000000000e+00 0.000000000000e+00 0.000000000000e+00 0.000000000000e+00 0.000000000000e+00 0.000000000000e+00 0.000000000000e+00 0.000000000000e+00 0.000000000000e+00 0.000000000000e+00 0.000000000000e+00 0.000000000000e+00 0.000000000000e+00 0.000000000000e+00 0.000000000000e+00 0.000000000000e+00 0.000000000000e+00 0.000000000000e+00 0.000000000000e+00 0.000000000000e+00 0.000000000000e+00 0.000000000000e+00 0.000000000000e+00 0.000000000000e+00 0.000000000000e+00 0.000000000000e+00 0.000000000000e+00 0.000000000000e+00 0.000000000000e+00 0.000000000000e+00 0.000000000000e+00 0.000000000000e+00 0.000000000000e+00 0.000000000000e+00 0.000000000000e+00 0.000000000000e+00 0.000000000000e+00 0.000000000000e+00 0.000000000000e+00 0.000000000000e+00 0.000000000000e+00 0.000000000000e+00 0.000000000000e+00 0.000000000000e+00 0.000000000000e+00 0.000000000000e+00 0.000000000000e+00 0.000000000000e+00 0.000000000000e+00 0.000000000000e+00 0.000000000000e+00 0.000000000000e+00 0.000000000000e+00 0.000000000000e+00 0.000000000000e+00 0.000000000000e+00 0.000000000000e+00 0.000000000000e+00 0.000000000000e+00 0.000000000000e+00 0.000000000000e+00 0.000000000000e+00 0.000000000000e+00 0.000000000000e+00 0.000000000000e+00 0.000000000000e+00 0.000000000000e+00 0.000000000000e+00 0.000000000000e+00 0.000000000000e+00 0.000000000000e+00 0.000000000000e+00 0.000000000000e+00 0.000000000000e+00 0.000000000000e+00 0.000000000000e+00 0.000000000000e+00 0.000000000000e+00 0.000000000000e+00 0.000000000000e+00 0.000000000000e+00 0.000000000000e+00 0.000000000000e+00 0.000000000000e+00 0.000000000000e+00 0.000000000000e+00 0.000000000000e+00 0.000000000000e+00 0.000000000000e+00 0.000000000000e+00 0.000000000000e+00 0.000000000000e+00 0.000000000000e+00 0.000000000000e+00 0.000000000000e+00 0.000000000000e+00 0.000000000000e+00 0.000000000000e+00 0.000000000000e+00 0.000000000000e+00 0.000000000000e+00 0.000000000000e+00 0.000000000000e+00 
        </DataArray>
        <DataArray type="Float64" Name="NODAL_VELOCITY1" NumberOfComponents="3" format="ascii">
          8.840532057824e-01 -7.028221759168e-02 0.000000000000e+00 9.917022524303e-01 -5.013662922910e-02 0.000000000000e+00 9.799448246080e-01 -1.096396942312e-02 0.000000000000e+00 9.855160473305e-01 -4.943902850087e-03 0.000000000000e+00 9.895889167713e-01 -2.810097318709e-03 0.000000000000e+00 9.923788701477e-01 -1.783224170168e-03 0.000000000000e+00 9.942888811028e-01 -1.184437869055e-03 0.000000000000e+00 9.955789452717e-01 -7.887797556643e-04 0.000000000000e+00 9.964068226840e-01 -5.023073347225e-04 0.000000000000e+00 9.968664769801e-01 -2.771557202697e-04 0.000000000000e+00 9.971975410711e-01 -1.973569529631e-04 0.000000000000e+00 9.758970899454e-01 -6.121362360493e-02 0.000000000000e+00 9.572220463558e-01 -2.625643525401e-02 0.000000000000e+00 9.804108888988e-01 -1.355285720647e-02 0.000000000000e+00 9.863598633135e-01 -7.321442055577e-03 0.000000000000e+00 9.901793896687e-01 -4.503488529280e-03 0.000000000000e+00 9.927806113430e-01 -2.963300720375e-03 0.000000000000e+00 9.945750309477e-01 -2.001303074545e-03 0.000000000000e+00 9.957941119150e-01 -1.340270750604e-03 0.000000000000e+00 9.965790995892e-01 -8.503112408036e-04 0.000000000000e+00 9.970157571976e-01 -4.591187487736e-04 0.000000000000e+00 9.973298673077e-01 -2.686334981934e-04 0.000000000000e+00 9.913155348021e-01 -3.207317775027e-02 0.000000000000e+00 9.866971719729e-01 -2.550760624066e-02 0.000000000000e+00 9.855187598491e-01 -1.673472281965e-02 0.000000000000e+00 9.893078964138e-01 -1.096687196777e-02 0.000000000000e+00 9.920059625810e-01 -7.354109996696e-03 0.000000000000e+00 9.940029920951e-01 -5.048763701446e-03 0.000000000000e+00 9.954449480820e-01 -3.481938810578e-03 0.000000000000e+00 9.964482422691e-01 -2.353975193852e-03 0.000000000000e+00 9.971017877676e-01 -1.496114538982e-03 0.000000000000e+00 9.974666787357e-01 -8.010678112633e-04 0.000000000000e+00 9.977803783400e-01 -4.209420311166e-04 0.000000000000e+00 9.961382490681e-01 -2.347374264387e-02 0.000000000000e+00 9.942074087286e-01 -2.111228515671e-02 0.000000000000e+00 9.924782937907e-01 -1.678445466880e-02 0.000000000000e+00 9.931270109774e-01 -1.245671258582e-02 0.000000000000e+00 9.945229951894e-01 -9.027506324681e-03 0.000000000000e+00 9.957736724385e-01 -6.461945565457e-03 0.000000000000e+00 9.967456371969e-01 -4.554363679843e-03 0.000000000000e+00 9.974443072451e-01 -3.112082993798e-03 0.000000000000e+00 9.979059879967e-01 -1.986185168043e-03 0.000000000000e+00 9.981646624066e-01 -1.061398149610e-03 0.000000000000e+00 9.984475995881e-01 -5.309558294791e-04 0.000000000000e+00 9.983461381179e-01 -2.009999444773e-02 0.000000000000e+00 9.976299152522e-01 -1.885802680242e-02 0.000000000000e+00 9.967528448770e-01 -1.616534961237e-02 0.000000000000e+00 9.967808018100e-01 -1.289962939265e-02 0.000000000000e+00 9.972782057574e-01 -9.815484624428e-03 0.000000000000e+00 9.978483197164e-01 -7.230388007209e-03 0.000000000000e+00 9.983242478798e-01 -5.174584273370e-03 0.000000000000e+00 9.986754234852e-01 -3.562896486970e-03 0.000000000000e+00 9.989094165769e-01 -2.280822173775e-03 0.000000000000e+00 9.990397896636e-01 -1.217511242638e-03 0.000000000000e+00 9.992657358629e-01 -5.892138536678e-04 0.000000000000e+00 9.997437747608e-01 -1.925094300681e-02 0.000000000000e+00 9.998937529653e-01 -1.828477863939e-02 0.000000000000e+00 9.999729512067e-01 -1.599337299842e-02 0.000000000000e+00 1.000027708116e+00 -1.301366411932e-02 0.000000000000e+00 1.000046592074e+00 -1.003423078929e-02 0.000000000000e+00 1.000043891163e+00 -7.444462746179e-03 0.000000000000e+00 1.000034300704e+00 -5.346482757686e-03 0.000000000000e+00 1.000024174082e+00 -3.686728598227e-03 0.000000000000e+00 1.000015028665e+00 -2.360247283826e-03 0.000000000000e+00 1.000006873206e+00 -1.257267430305e-03 0.000000000000e+00 1.000155080768e+00 -5.911402032027e-04 0.000000000000e+00 1.001005150898e+00 -2.040338256780e-02 0.000000000000e+00 1.002137006009e+00 -1.925343770092e-02 0.000000000000e+00 1.003233459585e+00 -1.647605845283e-02 0.000000000000e+00 1.003317964220e+00 -1.301744728453e-02 0.000000000000e+00 1.002834087401e+00 -9.777724535164e-03 0.000000000000e+00 1.002243333955e+00 -7.129510143470e-03 0.000000000000e+00 1.001743962490e+00 -5.070994566937e-03 0.000000000000e+00 1.001371642893e+00 -3.478126868412e-03 0.000000000000e+00 1.001119561240e+00 -2.219140463212e-03 0.000000000000e+00 1.000973405159e+00 -1.177595306022e-03 0.000000000000e+00 1.001029508293e+00 -5.365660881772e-04 0.000000000000e+00 1.002598083673e+00 -2.418986818386e-02 0.000000000000e+00 1.005532592559e+00 -2.217401426588e-02 0.000000000000e+00 1.007727091849e+00 -1.753485704684e-02 0.000000000000e+00 1.007117862061e+00 -1.260378933683e-02 0.000000000000e+00 1.005621341285e+00 -8.832232711916e-03 0.000000000000e+00 1.004322172384e+00 -6.208490102506e-03 0.000000000000e+00 1.003318920205e+00 -4.331879334595e-03 0.000000000000e+00 1.002598134119e+00 -2.940989997611e-03 0.000000000000e+00 1.002119532324e+00 -1.865149848265e-03 0.000000000000e+00 1.001846831423e+00 -9.841181752248e-04 0.000000000000e+00 1.001804135724e+00 -4.297299274805e-04 0.000000000000e+00 1.004979252036e+00 -3.346020848178e-02 0.000000000000e+00 1.013472103597e+00 -2.845621085787e-02 0.000000000000e+00 1.015650107609e+00 -1.820908332171e-02 0.000000000000e+00 1.010957495437e+00 -1.051930421507e-02 0.000000000000e+00 1.008140702572e+00 -6.788990092298e-03 0.000000000000e+00 1.006082001798e+00 -4.580747573274e-03 0.000000000000e+00 1.004607724458e+00 -3.130126819430e-03 0.000000000000e+00 1.003584736050e+00 -2.101358692683e-03 0.000000000000e+00 1.002917532840e+00 -1.323153998752e-03 0.000000000000e+00 1.002541913753e+00 -6.923859485583e-04 0.000000000000e+00 1.002403043869e+00 -2.797693474077e-04 0.000000000000e+00 1.002300068975e+00 -6.240167304262e-02 0.000000000000e+00 1.054721582018e+00 -4.224924818971e-02 0.000000000000e+00 1.019071884944e+00 -1.030777147047e-02 0.000000000000e+00 1.013836883157e+00 -5.657228270698e-03 0.000000000000e+00 1.009911452237e+00 -3.468379730864e-03 0.000000000000e+00 1.007270379188e+00 -2.286028157797e-03 0.000000000000e+00 1.005455067524e+00 -1.542170532015e-03 0.000000000000e+00 1.004224130378e+00 -1.026664530056e-03 0.000000000000e+00 1.003431388082e+00 -6.408704783984e-04 0.000000000000e+00 1.002988862777e+00 -3.291449728310e-04 0.000000000000e+00 1.002766787033e+00 -1.009152944405e-04 0.000000000000e+00 1.105555995821e+00 -1.035097098950e-01 0.000000000000e+00 1.007142237993e+00 -1.618345112182e-02 0.000000000000e+00 1.022774672057e+00 -4.821095845295e-03 0.000000000000e+00 1.015023662545e+00 -2.548905219671e-03 0.000000000000e+00 1.010632732724e+00 -1.551156894020e-03 0.000000000000e+00 1.007728731482e+00 -1.016569978090e-03 0.000000000000e+00 1.005772120509e+00 -6.828377938897e-04 0.000000000000e+00 1.004459035165e+00 -4.522659059992e-04 0.000000000000e+00 1.003617950649e+00 -2.796192084404e-04 0.000000000000e+00 1.003149705380e+00 -1.396032019007e-04 0.000000000000e+00 1.002915320563e+00 -2.030009615002e-05 0.000000000000e+00 
        </DataArray>
        <DataArray type="Float64" Name="DISPLACEMENT" NumberOfComponents="3" format="ascii">
          0.000000000000e+00 0.000000000000e+00 0.000000000000e+00 8.853764473341e-04 0.000000000000e+00 0.000000000000e+00 1.646398885239e-03 0.000000000000e+00 0.000000000000e+00 2.294178530519e-03 0.000000000000e+00 0.000000000000e+00 2.838019706244e-03 0.000000000000e+00 0.000000000000e+00 3.284811580793e-03 0.000000000000e+00 0.000000000000e+00 3.638645994423e-03 0.000000000000e+00 0.000000000000e+00 3.900561481556e-03 0.000000000000e+00 0.000000000000e+00 4.068269109014e-03 0.000000000000e+00 0.000000000000e+00 4.135706001327e-03 0.000000000000e+00 0.000000000000e+00 4.092239272438e-03 0.000000000000e+00 0.000000000000e+00 0.000000000000e+00 7.157421509883e-04 0.000000000000e+00 8.860615111974e-04 7.068512726641e-04 0.000000000000e+00 1.647873211314e-03 6.808431176721e-04 0.000000000000e+00 2.296616390743e-03 6.396304758991e-04 0.000000000000e+00 2.841592260388e-03 5.861205311581e-04 0.000000000000e+00 3.289630785955e-03 5.239115105119e-04 0.000000000000e+00 3.644745035457e-03 4.570565764396e-04 0.000000000000e+00 3.907924784285e-03 3.899750589224e-04 0.000000000000e+00 4.076911733657e-03 3.275458318298e-04 0.000000000000e+00 4.145789510042e-03 2.753692154127e-04 0.000000000000e+00 4.104195343244e-03 2.401318927465e-04 0.000000000000e+00 0.000000000000e+00 1.435623385122e-03 0.000000000000e+00 8.883932081418e-04 1.417554737670e-03 0.000000000000e+00 1.652872524732e-03 1.364755709563e-03 0.000000000000e+00 2.304815487558e-03 1.281221472765e-03 0.000000000000e+00 2.853500533820e-03 1.172954780514e-03 0.000000000000e+00 3.305556014413e-03 1.047282254482e-03 0.000000000000e+00 3.664734396636e-03 9.123299428162e-04 0.000000000000e+00 3.931859463071e-03 7.768281568333e-04 0.000000000000e+00 4.104752188720e-03 6.503108403420e-04 0.000000000000e+00 4.177936530354e-03 5.436858834416e-04 0.000000000000e+00 4.141888555088e-03 4.700591765745e-04 0.000000000000e+00 0.000000000000e+00 2.163514392979e-03 0.000000000000e+00 8.932412568135e-04 2.135672993887e-03 0.000000000000e+00 1.663177626547e-03 2.054451966256e-03 0.000000000000e+00 2.321503008300e-03 1.926315561419e-03 0.000000000000e+00 2.877396569820e-03 1.760785030556e-03 0.000000000000e+00 3.337066389937e-03 1.569195383924e-03 0.000000000000e+00 3.703753810721e-03 1.363783991787e-03 0.000000000000e+00 3.977948131593e-03 1.157363763108e-03 0.000000000000e+00 4.157565014274e-03 9.636520931731e-04 0.000000000000e+00 4.237861320130e-03 7.982276293867e-04 0.000000000000e+00 4.210792610116e-03 6.799895546838e-04 0.000000000000e+00 0.000000000000e+00 2.902796776164e-03 0.000000000000e+00 9.021508837189e-04 2.864200679687e-03 0.000000000000e+00 1.681946730926e-03 2.751914798101e-03 0.000000000000e+00 2.351490288804e-03 2.575593870282e-03 0.000000000000e+00 2.919662425903e-03 2.349021223880e-03 0.000000000000e+00 3.391895656323e-03 2.087993030433e-03 0.000000000000e+00 3.770575583809e-03 1.808899153078e-03 0.000000000000e+00 4.055636426230e-03 1.528263443226e-03 0.000000000000e+00 4.245069439585e-03 1.263233726951e-03 0.000000000000e+00 4.335147125089e-03 1.032993463927e-03 0.000000000000e+00 4.320036589991e-03 8.610649034959e-04 0.000000000000e+00 0.000000000000e+00 3.656056728009e-03 0.000000000000e+00 9.175316853759e-04 3.605199249093e-03 0.000000000000e+00 1.714100439184e-03 3.457910764542e-03 0.000000000000e+00 2.402201217519e-03 3.228338627721e-03 0.000000000000e+00 2.989964284908e-03 2.935723806837e-03 0.000000000000e+00 3.481489721738e-03 2.600932468824e-03 0.000000000000e+00 3.877898479567e-03 2.244486207235e-03 0.000000000000e+00 4.178369680630e-03 1.886072290416e-03 0.000000000000e+00 4.380962946701e-03 1.545227463442e-03 0.000000000000e+00 4.483222134096e-03 1.243172399292e-03 0.000000000000e+00 4.482307245661e-03 1.006077403398e-03 0.000000000000e+00 0.000000000000e+00 4.424671709821e-03 0.000000000000e+00 9.430714993470e-04 4.359262026116e-03 0.000000000000e+00 1.767144937826e-03 4.171280255967e-03 0.000000000000e+00 2.484745161139e-03 3.881746917065e-03 0.000000000000e+00 3.102291016515e-03 3.517133376453e-03 0.000000000000e+00 3.621767196273e-03 3.103971818693e-03 0.000000000000e+00 4.042722700523e-03 2.666661948924e-03 0.000000000000e+00 4.363615035063e-03 2.227300730815e-03 0.000000000000e+00 4.582717886751e-03 1.806572174392e-03 0.000000000000e+00 4.699057386531e-03 1.425709005182e-03 0.000000000000e+00 4.713456964873e-03 1.110470325389e-03 0.000000000000e+00 0.000000000000e+00 5.208133991050e-03 0.000000000000e+00 9.846674445679e-04 5.124573409119e-03 0.000000000000e+00 1.852962875043e-03 4.887759054184e-03 0.000000000000e+00 2.616055859655e-03 4.530054046864e-03 0.000000000000e+00 3.276802532136e-03 4.087365408693e-03 0.000000000000e+00 3.834298772273e-03 3.591925763769e-03 0.000000000000e+00 4.286757208236e-03 3.071217650672e-03 0.000000000000e+00 4.632575563291e-03 2.548798488065e-03 0.000000000000e+00 4.870827774624e-03 2.045327747988e-03 0.000000000000e+00 5.002233082341e-03 1.579923705294e-03 0.000000000000e+00 5.031488926269e-03 1.173676818840e-03 0.000000000000e+00 0.000000000000e+00 6.002724274692e-03 0.000000000000e+00 1.052765156449e-03 5.894914380219e-03 0.000000000000e+00 1.991916864350e-03 5.597894171453e-03 0.000000000000e+00 2.823025639270e-03 5.163654338841e-03 0.000000000000e+00 3.542828270545e-03 4.638722021733e-03 0.000000000000e+00 4.147949649124e-03 4.059418913431e-03 0.000000000000e+00 4.636801696785e-03 3.454746578142e-03 0.000000000000e+00 5.009405719583e-03 2.848702007379e-03 0.000000000000e+00 5.267057940628e-03 2.261239001262e-03 0.000000000000e+00 5.412742196225e-03 1.708043679655e-03 0.000000000000e+00 5.454325173796e-03 1.200772056249e-03 0.000000000000e+00 0.000000000000e+00 6.798362714547e-03 0.000000000000e+00 1.169700764931e-03 6.654512851112e-03 0.000000000000e+00 2.222788860783e-03 6.283943176978e-03 0.000000000000e+00 3.149590131257e-03 5.769486115836e-03 0.000000000000e+00 3.942764776499e-03 5.163570673856e-03 0.000000000000e+00 4.600692710593e-03 4.503118109522e-03 0.000000000000e+00 5.125127490941e-03 3.816878035501e-03 0.000000000000e+00 5.520088690297e-03 3.128451360697e-03 0.000000000000e+00 5.791379196647e-03 2.457015551042e-03 0.000000000000e+00 5.946319105591e-03 1.815454760387e-03 0.000000000000e+00 5.995076065197e-03 1.204136755783e-03 0.000000000000e+00 0.000000000000e+00 7.566439393948e-03 0.000000000000e+00 1.403579988065e-03 7.363796658817e-03 0.000000000000e+00 2.623246264479e-03 6.921724612368e-03 0.000000000000e+00 3.664603188915e-03 6.336294562959e-03 0.000000000000e+00 4.534717655471e-03 5.658813368213e-03 0.000000000000e+00 5.240653681792e-03 4.925202195554e-03 0.000000000000e+00 5.790154776990e-03 4.163443983760e-03 0.000000000000e+00 6.192360682029e-03 3.396346101486e-03 0.000000000000e+00 6.458912960437e-03 2.642073606700e-03 0.000000000000e+00 6.605488789868e-03 1.911988499777e-03 0.000000000000e+00 6.651427425303e-03 1.202323826840e-03 0.000000000000e+00 
        </DataArray>
        <DataArray type="Float64" Name="DENSITY" format="ascii">
          8.917079500000e-07 9.025371550000e-07 9.133663600000e-07 9.241955650000e-07 9.350247700000e-07 9.458539750000e-07 9.566831800000e-07 9.675123850000e-07 9.783415900000e-07 9.891707950000e-07 1.000000000000e-06 8.917079500000e-07 9.025371550000e-07 9.133663600000e-07 9.241955650000e-07 9.350247700000e-07 9.458539750000e-07 9.566831800000e-07 9.675123850000e-07 9.783415900000e-07 9.891707950000e-07 1.000000000000e-06 8.917079500000e-07 9.025371550000e-07 9.133663600000e-07 9.241955650000e-07 9.350247700000e-07 9.458539750000e-07 9.566831800000e-07 9.675123850000e-07 9.783415900000e-07 9.891707950000e-07 1.000000000000e-06 8.917079500000e-07 9.025371550000e-07 9.133663600000e-07 9.241955650000e-07 9.350247700000e-07 9.458539750000e-07 9.566831800000e-07 9.675123850000e-07 9.783415900000e-07 9.891707950000e-07 1.000000000000e-06 8.917079500000e-07 9.025371550000e-07 9.133663600000e-07 9.241955650000e-07 9.350247700000e-07 9.458539750000e-07 9.566831800000e-07 9.675123850000e-07 9.783415900000e-07 9.891707950000e-07 1.000000000000e-06 8.917079500000e-07 9.025371550000e-07 9.133663600000e-07 9.241955650000e-07 9.350247700000e-07 9.458539750000e-07 9.566831800000e-07 9.675123850000e-07 9.783415900000e-07 9.891707950000e-07 1.000000000000e-06 8.917079500000e-07 9.025371550000e-07 9.133663600000e-07 9.241955650000e-07 9.350247700000e-07 9.458539750000e-07 9.566831800000e-07 9.675123850000e-07 9.783415900000e-07 9.891707950000e-07 1.000000000000e-06 8.917079500000e-07 9.025371550000e-07 9.133663600000e-07 9.241955650000e-07 9.350247700000e-07 9.458539750000e-07 9.566831800000e-07 9.675123850000e-07 9.783415900000e-07 9.891707950000e-07 1.000000000000e-06 8.917079500000e-07 9.025371550000e-07 9.133663600000e-07 9.241955650000e-07 9.350247700000e-07 9.458539750000e-07 9.566831800000e-07 9.675123850000e-07 9.783415900000e-07 9.891707950000e-07 1.000000000000e-06 8.917079500000e-07 9.025371550000e-07 9.133663600000e-07 9.241955650000e-07 9.350247700000e-07 9.458539750000e-07 9.566831800000e-07 9.675123850000e-07 9.783415900000e-07 9.891707950000e-07 1.000000000000e-06 8.917079500000e-07 9.025371550000e-07 9.133663600000e-07 9.241955650000e-07 9.350247700000e-07 9.458539750000e-07 9.566831800000e-07 9.675123850000e-07 9.783415900000e-07 9.891707950000e-07 1.000000000000e-06 
        </DataArray>
        <DataArray type="Float64" Name="VISCOSITY" format="ascii">
          1.278000000000e-09 1.278000000000e-09 1.278000000000e-09 1.278000000000e-09 1.278000000000e-09 1.278000000000e-09 1.278000000000e-09 1.278000000000e-09 1.278000000000e-09 1.278000000000e-09 1.278000000000e-09 1.278000000000e-09 1.278000000000e-09 1.278000000000e-09 1.278000000000e-09 1.278000000000e-09 1.278000000000e-09 1.278000000000e-09 1.278000000000e-09 1.278000000000e-09 1.278000000000e-09 1.278000000000e-09 1.278000000000e-09 1.278000000000e-09 1.278000000000e-09 1.278000000000e-09 1.278000000000e-09 1.278000000000e-09 1.278000000000e-09 1.278000000000e-09 1.278000000000e-09 1.278000000000e-09 1.278000000000e-09 1.278000000000e-09 1.278000000000e-09 1.278000000000e-09 1.278000000000e-09 1.278000000000e-09 1.278000000000e-09 1.278000000000e-09 1.278000000000e-09 1.278000000000e-09 1.278000000000e-09 1.278000000000e-09 1.278000000000e-09 1.278000000000e-09 1.278000000000e-09 1.278000000000e-09 1.278000000000e-09 1.278000000000e-09 1.278000000000e-09 1.278000000000e-09 1.278000000000e-09 1.278000000000e-09 1.278000000000e-09 1.278000000000e-09 1.278000000000e-09 1.278000000000e-09 1.278000000000e-09 1.278000000000e-09 1.278000000000e-09 1.278000000000e-09 1.278000000000e-09 1.278000000000e-09 1.278000000000e-09 1.278000000000e-09 1.278000000000e-09 1.278000000000e-09 1.278000000000e-09 1.278000000000e-09 1.278000000000e-09 1.278000000000e-09 1.278000000000e-09 1.278000000000e-09 1.278000000000e-09 1.278000000000e-09 1.278000000000e-09 1.278000000000e-09 1.278000000000e-09 1.278000000000e-09 1.278000000000e-09 1.278000000000e-09 1.278000000000e-09 1.278000000000e-09 1.278000000000e-09 1.278000000000e-09 1.278000000000e-09 1.278000000000e-09 1.278000000000e-09 1.278000000000e-09 1.278000000000e-09 1.278000000000e-09 1.278000000000e-09 1.278000000000e-09 1.278000000000e-09 1.278000000000e-09 1.278000000000e-09 1.278000000000e-09 1.278000000000e-09 1.278000000000e-09 1.278000000000e-09 1.278000000000e-09 1.278000000000e-09 1.278000000000e-09 1.278000000000e-09 1.278000000000e-09 1.278000000000e-09 1.278000000000e-09 1.278000000000e-09 1.278000000000e-09 1.278000000000e-09 1.278000000000e-09 1.278000000000e-09 1.278000000000e-09 1.278000000000e-09 1.278000000000e-09 1.278000000000e-09 1.278000000000e-09 1.278000000000e-09 1.278000000000e-09 1.278000000000e-09 
        </DataArray>
        <DataArray type="Float64" Name="SPECIFIC_HEAT_CAPACITY" format="ascii">
          4.680000000000e+03 4.680000000000e+03 4.680000000000e+03 4.680000000000e+03 4.680000000000e+03 4.680000000000e+03 4.680000000000e+03 4.680000000000e+03 4.680000000000e+03 4.680000000000e+03 4.680000000000e+03 4.680000000000e+03 4.680000000000e+03 4.680000000000e+03 4.680000000000e+03 4.680000000000e+03 4.680000000000e+03 4.680000000000e+03 4.680000000000e+03 4.680000000000e+03 4.680000000000e+03 4.680000000000e+03 4.680000000000e+03 4.680000000000e+03 4.680000000000e+03 4.680000000000e+03 4.680000000000e+03 4.680000000000e+03 4.680000000000e+03 4.680000000000e+03 4.680000000000e+03 4.680000000000e+03 4.680000000000e+03 4.680000000000e+03 4.680000000000e+03 4.680000000000e+03 4.680000000000e+03 4.680000000000e+03 4.680000000000e+03 4.680000000000e+03 4.680000000000e+03 4.680000000000e+03 4.680000000000e+03 4.680000000000e+03 4.680000000000e+03 4.680000000000e+03 4.680000000000e+03 4.680000000000e+03 4.680000000000e+03 4.680000000000e+03 4.680000000000e+03 4.680000000000e+03 4.680000000000e+03 4.680000000000e+03 4.680000000000e+03 4.680000000000e+03 4.680000000000e+03 4.680000000000e+03 4.680000000000e+03 4.680000000000e+03 4.680000000000e+03 4.680000000000e+03 4.680000000000e+03 4.680000000000e+03 4.680000000000e+03 4.680000000000e+03 4.680000000000e+03 4.680000000000e+03 4.680000000000e+03 4.680000000000e+03 4.680000000000e+03 4.680000000000e+03 4.680000000000e+03 4.680000000000e+03 4.680000000000e+03 4.680000000000e+03 4.680000000000e+03 4.680000000000e+03 4.680000000000e+03 4.680000000000e+03 4.680000000000e+03 4.680000000000e+03 4.680000000000e+03 4.680000000000e+03 4.680000000000e+03 4.680000000000e+03 4.680000000000e+03 4.680000000000e+03 4.680000000000e+03 4.680000000000e+03 4.680000000000e+03 4.680000000000e+03 4.680000000000e+03 4.680000000000e+03 4.680000000000e+03 4.680000000000e+03 4.680000000000e+03 4.680000000000e+03 4.680000000000e+03 4.680000000000e+03 4.680000000000e+03 4.680000000000e+03 4.680000000000e+03 4.680000000000e+03 4.680000000000e+03 4.680000000000e+03 4.680000000000e+03 4.680000000000e+03 4.680000000000e+03 4.680000000000e+03 4.680000000000e+03 4.680000000000e+03 4.680000000000e+03 4.680000000000e+03 4.680000000000e+03 4.680000000000e+03 4.680000000000e+03 4.680000000000e+03 4.680000000000e+03 4.680000000000e+03 4.680000000000e+03 
        </DataArray>
        <DataArray type="Float64" Name="HEAT_CONDUCTIVITY" format="ascii">
          6.000000000000e-01 6.000000000000e-01 6.000000000000e-01 6.000000000000e-01 6.000000000000e-01 6.000000000000e-01 6.000000000000e-01 6.000000000000e-01 6.000000000000e-01 6.000000000000e-01 6.000000000000e-01 6.000000000000e-01 6.000000000000e-01 6.000000000000e-01 6.000000000000e-01 6.000000000000e-01 6.000000000000e-01 6.000000000000e-01 6.000000000000e-01 6.000000000000e-01 6.000000000000e-01 6.000000000000e-01 6.000000000000e-01 6.000000000000e-01 6.000000000000e-01 6.000000000000e-01 6.000000000000e-01 6.000000000000e-01 6.000000000000e-01 6.000000000000e-01 6.000000000000e-01 6.000000000000e-01 6.000000000000e-01 6.000000000000e-01 6.000000000000e-01 6.000000000000e-01 6.000000000000e-01 6.000000000000e-01 6.000000000000e-01 6.000000000000e-01 6.000000000000e-01 6.000000000000e-01 6.000000000000e-01 6.000000000000e-01 6.000000000000e-01 6.000000000000e-01 6.000000000000e-01 6.000000000000e-01 6.000000000000e-01 6.000000000000e-01 6.000000000000e-01 6.000000000000e-01 6.000000000000e-01 6.000000000000e-01 6.000000000000e-01 6.000000000000e-01 6.000000000000e-01 6.000000000000e-01 6.000000000000e-01 6.000000000000e-01 6.000000000000e-01 6.000000000000e-01 6.000000000000e-01 6.000000000000e-01 6.000000000000e-01 6.000000000000e-01 6.000000000000e-01 6.000000000000e-01 6.000000000000e-01 6.000000000000e-01 6.000000000000e-01 6.000000000000e-01 6.000000000000e-01 6.000000000000e-01 6.000000000000e-01 6.000000000000e-01 6.000000000000e-01 6.000000000000e-01 6.000000000000e-01 6.000000000000e-01 6.000000000000e-01 6.000000000000e-01 6.000000000000e-01 6.000000000000e-01 6.000000000000e-01 6.000000000000e-01 6.000000000000e-01 6.000000000000e-01 6.000000000000e-01 6.000000000000e-01 6.000000000000e-01 6.000000000000e-01 6.000000000000e-01 6.000000000000e-01 6.000000000000e-01 6.000000000000e-01 6.000000000000e-01 6.000000000000e-01 6.000000000000e-01 6.000000000000e-01 6.000000000000e-01 6.000000000000e-01 6.000000000000e-01 6.000000000000e-01 6.000000000000e-01 6.000000000000e-01 6.000000000000e-01 6.000000000000e-01 6.000000000000e-01 6.000000000000e-01 6.000000000000e-01 6.000000000000e-01 6.000000000000e-01 6.000000000000e-01 6.000000000000e-01 6.000000000000e-01 6.000000000000e-01 6.000000000000e-01 6.000000000000e-01 6.000000000000e-01 6.000000000000e-01 
        </DataArray>
      </PointData>
      <CellData>
        <DataArray type="Float64" Name="DENSITY" format="ascii">
          8.971225525000e-07 9.079517575000e-07 9.187809625000e-07 9.296101675000e-07 9.404393725000e-07 9.512685775000e-07 9.620977825000e-07 9.729269875000e-07 9.837561925000e-07 9.945853975000e-07 8.971225525000e-07 9.079517575000e-07 9.187809625000e-07 9.296101675000e-07 9.404393725000e-07 9.512685775000e-07 9.620977825000e-07 9.729269875000e-07 9.837561925000e-07 9.945853975000e-07 8.971225525000e-07 9.079517575000e-07 9.187809625000e-07 9.296101675000e-07 9.404393725000e-07 9.512685775000e-07 9.620977825000e-07 9.729269875000e-07 9.837561925000e-07 9.945853975000e-07 8.971225525000e-07 9.079517575000e-07 9.187809625000e-07 9.296101675000e-07 9.404393725000e-07 9.512685775000e-07 9.620977825000e-07 9.729269875000e-07 9.837561925000e-07 9.945853975000e-07 8.971225525000e-07 9.079517575000e-07 9.187809625000e-07 9.296101675000e-07 9.404393725000e-07 9.512685775000e-07 9.620977825000e-07 9.729269875000e-07 9.837561925000e-07 9.945853975000e-07 8.971225525000e-07 9.079517575000e-07 9.187809625000e-07 9.296101675000e-07 9.404393725000e-07 9.512685775000e-07 9.620977825000e-07 9.729269875000e-07 9.837561925000e-07 9.945853975000e-07 8.971225525000e-07 9.079517575000e-07 9.187809625000e-07 9.296101675000e-07 9.404393725000e-07 9.512685775000e-07 9.620977825000e-07 9.729269875000e-07 9.837561925000e-07 9.945853975000e-07 8.971225525000e-07 9.079517575000e-07 9.187809625000e-07 9.296101675000e-07 9.404393725000e-07 9.512685775000e-07 9.620977825000e-07 9.729269875000e-07 9.837561925000e-07 9.945853975000e-07 8.971225525000e-07 9.079517575000e-07 9.187809625000e-07 9.296101675000e-07 9.404393725000e-07 9.512685775000e-07 9.620977825000e-07 9.729269875000e-07 9.837561925000e-07 9.945853975000e-07 8.971225525000e-07 9.079517575000e-07 9.187809625000e-07 9.296101675000e-07 9.404393725000e-07 9.512685775000e-07 9.620977825000e-07 9.729269875000e-07 9.837561925000e-07 9.945853975000e-07 
        </DataArray>
        <DataArray type="Float64" Name="VISCOSITY" format="ascii">
          1.278000000000e-09 1.278000000000e-09 1.278000000000e-09 1.278000000000e-09 1.278000000000e-09 1.278000000000e-09 1.278000000000e-09 1.278000000000e-09 1.278000000000e-09 1.278000000000e-09 1.278000000000e-09 1.278000000000e-09 1.278000000000e-09 1.278000000000e-09 1.278000000000e-09 1.278000000000e-09 1.278000000000e-09 1.278000000000e-09 1.278000000000e-09 1.278000000000e-09 1.278000000000e-09 1.278000000000e-09 1.278000000000e-09 1.278000000000e-09 1.278000000000e-09 1.278000000000e-09 1.278000000000e-09 1.278000000000e-09 1.278000000000e-09 1.278000000000e-09 1.278000000000e-09 1.278000000000e-09 1.278000000000e-09 1.278000000000e-09 1.278000000000e-09 1.278000000000e-09 1.278000000000e-09 1.278000000000e-09 1.278000000000e-09 1.278000000000e-09 1.278000000000e-09 1.278000000000e-09 1.278000000000e-09 1.278000000000e-09 1.278000000000e-09 1.278000000000e-09 1.278000000000e-09 1.278000000000e-09 1.278000000000e-09 1.278000000000e-09 1.278000000000e-09 1.278000000000e-09 1.278000000000e-09 1.278000000000e-09 1.278000000000e-09 1.278000000000e-09 1.278000000000e-09 1.278000000000e-09 1.278000000000e-09 1.278000000000e-09 1.278000000000e-09 1.278000000000e-09 1.278000000000e-09 1.278000000000e-09 1.278000000000e-09 1.278000000000e-09 1.278000000000e-09 1.278000000000e-09 1.278000000000e-09 1.278000000000e-09 1.278000000000e-09 1.278000000000e-09 1.278000000000e-09 1.278000000000e-09 1.278000000000e-09 1.278000000000e-09 1.278000000000e-09 1.278000000000e-09 1.278000000000e-09 1.278000000000e-09 1.278000000000e-09 1.278000000000e-09 1.278000000000e-09 1.278000000000e-09 1.278000000000e-09 1.278000000000e-09 1.278000000000e-09 1.278000000000e-09 1.278000000000e-09 1.278000000000e-09 1.278000000000e-09 1.278000000000e-09 1.278000000000e-09 1.278000000000e-09 1.278000000000e-09 1.278000000000e-09 1.278000000000e-09 1.278000000000e-09 1.278000000000e-09 1.278000000000e-09 
        </DataArray>
      </CellData>
    </Piece>
  </UnstructuredGrid>
</VTKFile>
