<?xml version="1.0"?>
<!-- Time step: 2 | Time: 2.000000000000e+01 -->
<VTKFile type="UnstructuredGrid" version="0.1" byte_order="LittleEndian">
  <UnstructuredGrid>
    <Piece NumberOfPoints="121" NumberOfCells="100">
      <Points>
        <DataArray type="Float64" NumberOfComponents="3" format="ascii">
          0.000000000000e+00 0.000000000000e+00 0.000000000000e+00
          1.000000000000e-01 0.000000000000e+00 0.000000000000e+00
          2.000000000000e-01 0.000000000000e+00 0.000000000000e+00
          3.000000000000e-01 0.000000000000e+00 0.000000000000e+00
          4.000000000000e-01 0.000000000000e+00 0.000000000000e+00
          5.000000000000e-01 0.000000000000e+00 0.000000000000e+00
          6.000000000000e-01 0.000000000000e+00 0.000000000000e+00
          7.000000000000e-01 0.000000000000e+00 0.000000000000e+00
          8.000000000000e-01 0.000000000000e+00 0.000000000000e+00
          9.000000000000e-01 0.000000000000e+00 0.000000000000e+00
          1.000000000000e+00 0.000000000000e+00 0.000000000000e+00
          0.000000000000e+00 1.000000000000e-01 0.000000000000e+00
          1.000000000000e-01 1.000000000000e-01 0.000000000000e+00
          2.000000000000e-01 1.000000000000e-01 0.000000000000e+00
          3.000000000000e-01 1.000000000000e-01 0.000000000000e+00
          4.000000000000e-01 1.000000000000e-01 0.000000000000e+00
          5.000000000000e-01 1.000000000000e-01 0.000000000000e+00
          6.000000000000e-01 1.000000000000e-01 0.000000000000e+00
          7.000000000000e-01 1.000000000000e-01 0.000000000000e+00
          8.000000000000e-01 1.000000000000e-01 0.000000000000e+00
          9.000000000000e-01 1.000000000000e-01 0.000000000000e+00
          1.000000000000e+00 1.000000000000e-01 0.000000000000e+00
          0.000000000000e+00 2.000000000000e-01 0.000000000000e+00
          1.000000000000e-01 2.000000000000e-01 0.000000000000e+00
          2.000000000000e-01 2.000000000000e-01 0.000000000000e+00
          3.000000000000e-01 2.000000000000e-01 0.000000000000e+00
          4.000000000000e-01 2.000000000000e-01 0.000000000000e+00
          5.000000000000e-01 2.000000000000e-01 0.000000000000e+00
          6.000000000000e-01 2.000000000000e-01 0.000000000000e+00
          7.000000000000e-01 2.000000000000e-01 0.000000000000e+00
          8.000000000000e-01 2.000000000000e-01 0.000000000000e+00
          9.000000000000e-01 2.000000000000e-01 0.000000000000e+00
          1.000000000000e+00 2.000000000000e-01 0.000000000000e+00
          0.000000000000e+00 3.000000000000e-01 0.000000000000e+00
          1.000000000000e-01 3.000000000000e-01 0.000000000000e+00
          2.000000000000e-01 3.000000000000e-01 0.000000000000e+00
          3.000000000000e-01 3.000000000000e-01 0.000000000000e+00
          4.000000000000e-01 3.000000000000e-01 0.000000000000e+00
          5.000000000000e-01 3.000000000000e-01 0.000000000000e+00
          6.000000000000e-01 3.000000000000e-01 0.000000000000e+00
          7.000000000000e-01 3.000000000000e-01 0.000000000000e+00
          8.000000000000e-01 3.000000000000e-01 0.000000000000e+00
          9.000000000000e-01 3.000000000000e-01 0.000000000000e+00
          1.000000000000e+00 3.000000000000e-01 0.000000000000e+00
          0.000000000000e+00 4.000000000000e-01 0.000000000000e+00
          1.000000000000e-01 4.000000000000e-01 0.000000000000e+00
          2.000000000000e-01 4.000000000000e-01 0.000000000000e+00
          3.000000000000e-01 4.000000000000e-01 0.000000000000e+00
          4.000000000000e-01 4.000000000000e-01 0.000000000000e+00
          5.000000000000e-01 4.000000000000e-01 0.000000000000e+00
          6.000000000000e-01 4.000000000000e-01 0.000000000000e+00
          7.000000000000e-01 4.000000000000e-01 0.000000000000e+00
          8.000000000000e-01 4.000000000000e-01 0.000000000000e+00
          9.000000000000e-01 4.000000000000e-01 0.000000000000e+00
          1.000000000000e+00 4.000000000000e-01 0.000000000000e+00
          0.000000000000e+00 5.000000000000e-01 0.000000000000e+00
          1.000000000000e-01 5.000000000000e-01 0.000000000000e+00
          2.000000000000e-01 5.000000000000e-01 0.000000000000e+00
          3.000000000000e-01 5.000000000000e-01 0.000000000000e+00
          4.000000000000e-01 5.000000000000e-01 0.000000000000e+00
          5.000000000000e-01 5.000000000000e-01 0.000000000000e+00
          6.000000000000e-01 5.000000000000e-01 0.000000000000e+00
          7.000000000000e-01 5.000000000000e-01 0.000000000000e+00
          8.000000000000e-01 5.000000000000e-01 0.000000000000e+00
          9.000000000000e-01 5.000000000000e-01 0.000000000000e+00
          1.000000000000e+00 5.000000000000e-01 0.000000000000e+00
          0.000000000000e+00 6.000000000000e-01 0.000000000000e+00
          1.000000000000e-01 6.000000000000e-01 0.000000000000e+00
          2.000000000000e-01 6.000000000000e-01 0.000000000000e+00
          3.000000000000e-01 6.000000000000e-01 0.000000000000e+00
          4.000000000000e-01 6.000000000000e-01 0.000000000000e+00
          5.000000000000e-01 6.000000000000e-01 0.000000000000e+00
          6.000000000000e-01 6.000000000000e-01 0.000000000000e+00
          7.000000000000e-01 6.000000000000e-01 0.000000000000e+00
          8.000000000000e-01 6.000000000000e-01 0.000000000000e+00
          9.000000000000e-01 6.000000000000e-01 0.000000000000e+00
          1.000000000000e+00 6.000000000000e-01 0.000000000000e+00
          0.000000000000e+00 7.000000000000e-01 0.000000000000e+00
          1.000000000000e-01 7.000000000000e-01 0.000000000000e+00
          2.000000000000e-01 7.000000000000e-01 0.000000000000e+00
          3.000000000000e-01 7.000000000000e-01 0.000000000000e+00
          4.000000000000e-01 7.000000000000e-01 0.000000000000e+00
          5.000000000000e-01 7.000000000000e-01 0.000000000000e+00
          6.000000000000e-01 7.000000000000e-01 0.000000000000e+00
          7.000000000000e-01 7.000000000000e-01 0.000000000000e+00
          8.000000000000e-01 7.000000000000e-01 0.000000000000e+00
          9.000000000000e-01 7.000000000000e-01 0.000000000000e+00
          1.000000000000e+00 7.000000000000e-01 0.000000000000e+00
          0.000000000000e+00 8.000000000000e-01 0.000000000000e+00
          1.000000000000e-01 8.000000000000e-01 0.000000000000e+00
          2.000000000000e-01 8.000000000000e-01 0.000000000000e+00
          3.000000000000e-01 8.000000000000e-01 0.000000000000e+00
          4.000000000000e-01 8.000000000000e-01 0.000000000000e+00
          5.000000000000e-01 8.000000000000e-01 0.000000000000e+00
          6.000000000000e-01 8.000000000000e-01 0.000000000000e+00
          7.000000000000e-01 8.000000000000e-01 0.000000000000e+00
          8.000000000000e-01 8.000000000000e-01 0.000000000000e+00
          9.000000000000e-01 8.000000000000e-01 0.000000000000e+00
          1.000000000000e+00 8.000000000000e-01 0.000000000000e+00
          0.000000000000e+00 9.000000000000e-01 0.000000000000e+00
          1.000000000000e-01 9.000000000000e-01 0.000000000000e+00
          2.000000000000e-01 9.000000000000e-01 0.000000000000e+00
          3.000000000000e-01 9.000000000000e-01 0.000000000000e+00
          4.000000000000e-01 9.000000000000e-01 0.000000000000e+00
          5.000000000000e-01 9.000000000000e-01 0.000000000000e+00
          6.000000000000e-01 9.000000000000e-01 0.000000000000e+00
          7.000000000000e-01 9.000000000000e-01 0.000000000000e+00
          8.000000000000e-01 9.000000000000e-01 0.000000000000e+00
          9.000000000000e-01 9.000000000000e-01 0.000000000000e+00
          1.000000000000e+00 9.000000000000e-01 0.000000000000e+00
          0.000000000000e+00 1.000000000000e+00 0.000000000000e+00
          1.000000000000e-01 1.000000000000e+00 0.000000000000e+00
          2.000000000000e-01 1.000000000000e+00 0.000000000000e+00
          3.000000000000e-01 1.000000000000e+00 0.000000000000e+00
          4.000000000000e-01 1.000000000000e+00 0.000000000000e+00
          5.000000000000e-01 1.000000000000e+00 0.000000000000e+00
          6.000000000000e-01 1.000000000000e+00 0.000000000000e+00
          7.000000000000e-01 1.000000000000e+00 0.000000000000e+00
          8.000000000000e-01 1.000000000000e+00 0.000000000000e+00
          9.000000000000e-01 1.000000000000e+00 0.000000000000e+00
          1.000000000000e+00 1.000000000000e+00 0.000000000000e+00
        </DataArray>
      </Points>
      <Cells>
        <DataArray type="Int64" Name="connectivity" format="ascii">
          0 1 12 11 
          1 2 13 12 
          2 3 14 13 
          3 4 15 14 
          4 5 16 15 
          5 6 17 16 
          6 7 18 17 
          7 8 19 18 
          8 9 20 19 
          9 10 21 20 
          11 12 23 22 
          12 13 24 23 
          13 14 25 24 
          14 15 26 25 
          15 16 27 26 
          16 17 28 27 
          17 18 29 28 
          18 19 30 29 
          19 20 31 30 
          20 21 32 31 
          22 23 34 33 
          23 24 35 34 
          24 25 36 35 
          25 26 37 36 
          26 27 38 37 
          27 28 39 38 
          28 29 40 39 
          29 30 41 40 
          30 31 42 41 
          31 32 43 42 
          33 34 45 44 
          34 35 46 45 
          35 36 47 46 
          36 37 48 47 
          37 38 49 48 
          38 39 50 49 
          39 40 51 50 
          40 41 52 51 
          41 42 53 52 
          42 43 54 53 
          44 45 56 55 
          45 46 57 56 
          46 47 58 57 
          47 48 59 58 
          48 49 60 59 
          49 50 61 60 
          50 51 62 61 
          51 52 63 62 
          52 53 64 63 
          53 54 65 64 
          55 56 67 66 
          56 57 68 67 
          57 58 69 68 
          58 59 70 69 
          59 60 71 70 
          60 61 72 71 
          61 62 73 72 
          62 63 74 73 
          63 64 75 74 
          64 65 76 75 
          66 67 78 77 
          67 68 79 78 
          68 69 80 79 
          69 70 81 80 
          70 71 82 81 
          71 72 83 82 
          72 73 84 83 
          73 74 85 84 
          74 75 86 85 
          75 76 87 86 
          77 78 89 88 
          78 79 90 89 
          79 80 91 90 
          80 81 92 91 
          81 82 93 92 
          82 83 94 93 
          83 84 95 94 
          84 85 96 95 
          85 86 97 96 
          86 87 98 97 
          88 89 100 99 
          89 90 101 100 
          90 91 102 101 
          91 92 103 102 
          92 93 104 103 
          93 94 105 104 
          94 95 106 105 
          95 96 107 106 
          96 97 108 107 
          97 98 109 108 
          99 100 111 110 
          100 101 112 111 
          101 102 113 112 
          102 103 114 113 
          103 104 115 114 
          104 105 116 115 
          105 106 117 116 
          106 107 118 117 
          107 108 119 118 
          108 109 120 119 
        </DataArray>
        <DataArray type="Int64" Name="offsets" format="ascii">
          4 8 12 16 20 24 28 32 36 40 44 48 52 56 60 64 68 72 76 80 84 88 92 96 100 104 108 112 116 120 124 128 132 136 140 144 148 152 156 160 164 168 172 176 180 184 188 192 196 200 204 208 212 216 220 224 228 232 236 240 244 248 252 256 260 264 268 272 276 280 284 288 292 296 300 304 308 312 316 320 324 328 332 336 340 344 348 352 356 360 364 368 372 376 380 384 388 392 396 400 
        </DataArray>
        <DataArray type="UInt8" Name="types" format="ascii">
          9 9 9 9 9 9 9 9 9 9 9 9 9 9 9 9 9 9 9 9 9 9 9 9 9 9 9 9 9 9 9 9 9 9 9 9 9 9 9 9 9 9 9 9 9 9 9 9 9 9 9 9 9 9 9 9 9 9 9 9 9 9 9 9 9 9 9 9 9 9 9 9 9 9 9 9 9 9 9 9 9 9 9 9 9 9 9 9 9 9 9 9 9 9 9 9 9 9 9 9 
        </DataArray>
      </Cells>
      <PointData Scalars="PRESSURE1">
        <DataArray type="Float64" Name="PRESSURE1" format="ascii">
          1.254561113857e-03 1.137640291301e-03 1.014092597220e-03 8.888235433366e-04 7.627159810592e-04 6.361117710094e-04 5.091865638849e-04 3.820476864234e-04 2.547686483930e-04 1.274044630534e-04 0.000000000000e+00 1.264927694680e-03 1.139594955624e-03 1.014909582815e-03 8.892677566360e-04 7.629918047239e-04 6.362939697259e-04 5.093091493251e-04 3.821285332001e-04 2.548178981231e-04 1.274277963785e-04 0.000000000000e+00 1.269777594799e-03 1.142918584130e-03 1.016649065560e-03 8.903113855643e-04 7.636700352372e-04 6.367522205720e-04 5.096210247513e-04 3.823354262148e-04 2.549443014793e-04 1.274877640835e-04 0.000000000000e+00 1.273088159835e-03 1.145705920480e-03 1.018661844261e-03 8.916918640652e-04 7.646278723600e-04 6.374212410400e-04 5.100841653722e-04 3.826453507656e-04 2.551344788991e-04 1.275781681764e-04 0.000000000000e+00 1.275777216946e-03 1.148139194183e-03 1.020645822729e-03 8.932040035559e-04 7.657407815317e-04 6.382233701347e-04 5.106486006900e-04 3.830262341069e-04 2.553691781606e-04 1.276899513600e-04 0.000000000000e+00 1.278234268117e-03 1.150418425640e-03 1.022587873676e-03 8.947512439929e-04 7.669158687454e-04 6.390855422920e-04 5.112610212207e-04 3.834414982647e-04 2.556256806157e-04 1.278122545450e-04 0.000000000000e+00 1.280713725123e-03 1.152713350309e-03 1.024535331388e-03 8.962959600640e-04 7.680849824870e-04 6.399414972157e-04 5.118683244197e-04 3.838530470120e-04 2.558798124259e-04 1.279334109921e-04 0.000000000000e+00 1.283481056951e-03 1.155197385506e-03 1.026531442591e-03 8.977949688800e-04 7.691768567560e-04 6.407239759747e-04 5.124172738193e-04 3.842229067492e-04 2.561075429190e-04 1.280418370988e-04 0.000000000000e+00 1.286974284101e-03 1.158079648500e-03 1.028540091168e-03 8.991316312895e-04 7.700913254634e-04 6.413581247673e-04 5.128546609866e-04 3.845150490274e-04 2.562866415729e-04 1.281269389961e-04 0.000000000000e+00 1.292293172178e-03 1.161520357650e-03 1.030154417392e-03 9.000783092113e-04 7.706994264034e-04 6.417667283408e-04 5.131319752888e-04 3.846987560757e-04 2.563988013101e-04 1.281801331321e-04 0.000000000000e+00 1.304615251895e-03 1.162644193487e-03 1.030713585180e-03 9.003781173021e-04 7.708857584587e-04 6.418898030245e-04 5.132147804280e-04 3.847533669340e-04 2.564320692188e-04 1.281958952194e-04 0.000000000000e+00 
        </DataArray>
        <DataArray type="Float64" Name="TEMPERATURE1" format="ascii">
          5.231500000000e+02 4.708191940990e+02 4.184903841850e+02 3.661650185751e+02 3.138439511867e+02 2.615275189406e+02 2.092156179169e+02 1.569077784460e+02 1.046032393163e+02 5.230102127460e+01 0.000000000000e+00 5.231500000000e+02 4.708191940990e+02 4.184903841850e+02 3.661650185751e+02 3.138439511867e+02 2.615275189406e+02 2.092156179169e+02 1.569077784460e+02 1.046032393163e+02 5.230102127460e+01 0.000000000000e+00 5.231500000000e+02 4.708191940990e+02 4.184903841850e+02 3.661650185751e+02 3.138439511867e+02 2.615275189406e+02 2.092156179169e+02 1.569077784460e+02 1.046032393163e+02 5.230102127460e+01 0.000000000000e+00 5.231500000000e+02 4.708191940990e+02 4.184903841850e+02 3.661650185751e+02 3.138439511867e+02 2.615275189406e+02 2.092156179169e+02 1.569077784460e+02 1.046032393163e+02 5.230102127460e+01 0.000000000000e+00 5.231500000000e+02 4.708191940990e+02 4.184903841850e+02 3.661650185751e+02 3.138439511867e+02 2.615275189406e+02 2.092156179169e+02 1.569077784460e+02 1.046032393163e+02 5.230102127460e+01 0.000000000000e+00 5.231500000000e+02 4.708191940990e+02 4.184903841850e+02 3.661650185751e+02 3.138439511867e+02 2.615275189406e+02 2.092156179169e+02 1.569077784460e+02 1.046032393163e+02 5.230102127460e+01 0.000000000000e+00 5.231500000000e+02 4.708191940990e+02 4.184903841850e+02 3.661650185751e+02 3.138439511867e+02 2.615275189406e+02 2.092156179169e+02 1.569077784460e+02 1.046032393163e+02 5.230102127460e+01 0.000000000000e+00 5.231500000000e+02 4.708191940990e+02 4.184903841850e+02 3.661650185751e+02 3.138439511867e+02 2.615275189406e+02 2.092156179169e+02 1.569077784460e+02 1.046032393163e+02 5.230102127460e+01 0.000000000000e+00 5.231500000000e+02 4.708191940990e+02 4.184903841850e+02 3.661650185751e+02 3.138439511867e+02 2.615275189406e+02 2.092156179169e+02 1.569077784460e+02 1.046032393163e+02 5.230102127460e+01 0.000000000000e+00 5.231500000000e+02 4.708191940990e+02 4.184903841850e+02 3.661650185751e+02 3.138439511867e+02 2.615275189406e+02 2.092156179169e+02 1.569077784460e+02 1.046032393163e+02 5.230102127460e+01 0.000000000000e+00 5.231500000000e+02 4.708191940990e+02 4.184903841850e+02 3.661650185751e+02 3.138439511867e+02 2.615275189406e+02 2.092156179169e+02 1.569077784460e+02 1.046032393163e+02 5.230102127460e+01 0.000000000000e+00 
        </DataArray>
        <DataArray type="Float64" Name="STRESS_XX" format="ascii">
          -2.913275304974e-02 -2.858048896864e-02 -2.675524353758e-02 -2.383134768569e-02 -2.007317424640e-02 -1.579597467296e-02 -1.134004127915e-02 -7.063941102642e-03 -3.360820983663e-03 -6.935698322791e-04 2.665646934707e-04 -2.869087975777e-02 -2.814416324988e-02 -2.632144608494e-02 -2.341092873356e-02 -1.968524994430e-02 -1.546407746355e-02 -1.108547550710e-02 -6.898611444915e-03 -3.281035749171e-03 -6.766324797341e-04 2.606388949406e-04 -2.731750028629e-02 -2.677123335024e-02 -2.495648256794e-02 -2.208767029976e-02 -1.846454922366e-02 -1.441976578842e-02 -1.028373996289e-02 -6.376536645235e-03 -3.028013844117e-03 -6.229473776872e-04 2.417250292119e-04 -2.481237986914e-02 -2.426297957134e-02 -2.245997082687e-02 -1.966850063684e-02 -1.623635230178e-02 -1.251583541641e-02 -8.820276410231e-03 -5.418150461250e-03 -2.557853721767e-03 -5.206008921360e-04 2.065248599666e-04 -2.082220073389e-02 -2.026519718899e-02 -1.848057055261e-02 -1.582321242339e-02 -1.271341181663e-02 -9.520765241247e-03 -6.521049419029e-03 -3.903923944633e-03 -1.803556818423e-03 -3.509877476825e-04 1.499066584602e-04 -1.479685400627e-02 -1.422636657249e-02 -1.248135264203e-02 -1.007185582141e-02 -7.510247671475e-03 -5.152244997705e-03 -3.190853752204e-03 -1.703898131722e-03 -6.891210732402e-04 -9.072964099342e-05 6.601146987700e-05 -5.897539968407e-03 -5.307924502227e-03 -3.673391303297e-03 -1.772206896127e-03 -1.864860632570e-04 8.467871861002e-04 1.305476022128e-03 1.258814516778e-03 8.382304873101e-04 2.828706070656e-04 -4.929099671895e-05 7.203831927029e-03 7.810879263691e-03 9.103450719965e-03 9.862877034239e-03 9.637743613767e-03 8.557343051594e-03 6.893283489509e-03 4.883731232930e-03 2.736198344794e-03 7.778590517705e-04 -1.923188097083e-04 2.681208645145e-02 2.739370786290e-02 2.753773976604e-02 2.558451818487e-02 2.201057235193e-02 1.763648842810e-02 1.306020991626e-02 8.670845200534e-03 4.695787947701e-03 1.341594099152e-03 -3.335067588063e-04 5.753418103004e-02 5.800060112272e-02 5.351736520391e-02 4.535041240645e-02 3.615706113396e-02 2.703132471232e-02 1.861727666190e-02 1.138589671583e-02 5.694027606746e-03 1.633668948421e-03 -3.484907802033e-04 1.219527368864e-01 1.053548260485e-01 8.510376948725e-02 6.676426617296e-02 4.998564657548e-02 3.487660662828e-02 2.167015427067e-02 1.079392087330e-02 2.987235724934e-03 -5.526288846805e-04 -2.295490385881e-04 
        </DataArray>
        <DataArray type="Float64" Name="STRESS_XY" format="ascii">
          8.545342222434e-08 -1.133873473797e-06 -2.708965053940e-06 -4.296563647749e-06 -5.930419987825e-06 -7.450818673265e-06 -8.678675225059e-06 -9.456787703600e-06 -9.726093766797e-06 -1.092747356096e-05 2.454341835271e-05 -3.556211373724e-06 -1.324312921598e-03 -2.524066033262e-03 -3.495088574382e-03 -4.170078949851e-03 -4.514585570337e-03 -4.511624520452e-03 -4.139398586739e-03 -3.348192563313e-03 -2.042596361319e-03 -7.043576558317e-05 -7.828690838660e-06 -2.649534442056e-03 -5.035186257137e-03 -6.945640841150e-03 -8.250420603650e-03 -8.892027690918e-03 -8.850697298383e-03 -8.096449107088e-03 -6.540137188665e-03 -3.993668356316e-03 -1.404146612754e-04 -1.288329678282e-05 -3.975302332527e-03 -7.518479582246e-03 -1.029946927204e-02 -1.213678629993e-02 -1.297550268672e-02 -1.282195732434e-02 -1.166455620747e-02 -9.395949585831e-03 -5.744357285189e-03 -2.085461975782e-04 -1.969603561411e-05 -5.304346947221e-03 -9.953384473340e-03 -1.348336232229e-02 -1.568953747049e-02 -1.656505070338e-02 -1.618499444804e-02 -1.459184021476e-02 -1.169178637530e-02 -7.151636135506e-03 -2.706853727044e-04 -2.994348660716e-05 -6.639960097365e-03 -1.230001170169e-02 -1.637278305221e-02 -1.869595850900e-02 -1.938509444306e-02 -1.863315053724e-02 -1.656897283929e-02 -1.314945238309e-02 -8.026892661207e-03 -3.182004027679e-04 -4.734009672210e-05 -7.979950338317e-03 -1.446016834072e-02 -1.872149554563e-02 -2.079821857247e-02 -2.103623891728e-02 -1.977682519345e-02 -1.723612982797e-02 -1.344832285146e-02 -8.136076377429e-03 -3.350351221182e-04 -8.163398334694e-05 -9.296988433969e-03 -1.616849356097e-02 -2.000227245736e-02 -2.136425876196e-02 -2.092849400752e-02 -1.913682244158e-02 -1.622325884285e-02 -1.228232235311e-02 -7.227251415690e-03 -2.921551460080e-04 -1.654551788981e-04 -1.046559760795e-02 -1.666225478367e-02 -1.907330279531e-02 -1.930697400060e-02 -1.821560509482e-02 -1.615084675807e-02 -1.322583459732e-02 -9.496512803078e-03 -5.129784170822e-03 -1.340451488018e-04 -5.216827822385e-04 -1.091182499209e-02 -1.355266222798e-02 -1.370705314206e-02 -1.299794067475e-02 -1.180145143896e-02 -1.017526581004e-02 -8.043755804618e-03 -5.299781955042e-03 -2.089158396453e-03 2.465144993345e-04 -2.229952131712e-03 -2.310591594833e-03 -1.186008617351e-03 -8.073853300021e-04 -6.149710370806e-04 -4.937398388785e-04 -3.981635577549e-04 -2.910548225430e-04 -1.134565106720e-04 2.549619171434e-04 3.148044979889e-04 
        </DataArray>
        <DataArray type="Float64" Name="STRESS_YY" format="ascii">
          -6.709104666171e-02 -4.691700825565e-02 -3.013519713030e-02 -1.638562020645e-02 -5.117818182058e-03 4.358638458041e-03 1.283314711364e-02 2.117713664349e-02 3.035801216905e-02 4.148237273224e-02 5.586294524030e-02 -6.640952441385e-02 -4.627313681722e-02 -2.958252508683e-02 -1.596593821067e-02 -4.856222210105e-03 4.449840262707e-03 1.274495710867e-02 2.089234307072e-02 2.984072732828e-02 4.067209340433e-02 5.467753982046e-02 -6.438911328286e-02 -4.435200601502e-02 -2.793975687974e-02 -1.472996597664e-02 -4.098681228754e-03 4.698512638389e-03 1.246489542200e-02 2.003809446201e-02 2.830811168138e-02 3.827751411329e-02 5.116461563975e-02 -6.102267826601e-02 -4.116289634364e-02 -2.524225510267e-02 -1.273922595914e-02 -2.919493805099e-03 5.038104054458e-03 1.195555951678e-02 1.862469767682e-02 2.582973392800e-02 3.442384307728e-02 4.547327595391e-02 -5.630144984241e-02 -3.671946050298e-02 -2.155599240260e-02 -1.010809271875e-02 -1.452635589085e-03 5.351880470850e-03 1.115186898572e-02 1.666849018373e-02 2.252570867659e-02 2.933687003659e-02 3.789034046085e-02 -5.020738742397e-02 -3.104601580692e-02 -1.699677598993e-02 -7.025900359169e-03 9.537575009872e-05 5.471303637721e-03 9.964213981412e-03 1.419382963505e-02 1.857069907546e-02 2.336396494915e-02 2.889701393272e-02 -4.270782243388e-02 -2.419247759505e-02 -1.177413577119e-02 -3.795821924234e-03 1.436616773346e-03 5.192573073736e-03 8.300806948575e-03 1.124450176464e-02 1.419480840159e-02 1.699147483182e-02 1.924249764498e-02 -3.374780672083e-02 -1.628129684201e-02 -6.294327660287e-03 -8.931888002873e-04 2.221307325515e-03 4.339350074775e-03 6.132388486731e-03 7.918622635952e-03 9.676565869964e-03 1.083706933541e-02 1.002369341187e-02 -2.322306869529e-02 -7.658847432155e-03 -1.407675868258e-03 1.003022146592e-03 2.152620646576e-03 2.907224736159e-03 3.623250038701e-03 4.456064831673e-03 5.335164574877e-03 5.568431228504e-03 2.747948040007e-03 -1.046849463556e-02 2.206805800367e-04 1.182760010100e-03 1.312369095874e-03 1.299843889439e-03 1.280713766981e-03 1.309294688675e-03 1.421864507150e-03 1.617304439339e-03 1.639739371101e-03 -6.679886180954e-04 2.593317131225e-03 2.111174494675e-03 1.203626620981e-03 8.717519239321e-04 6.535185716103e-04 4.633082353136e-04 2.731278281035e-04 7.199889726627e-05 -1.283998922724e-04 -2.271239553371e-04 -2.303910512732e-04 
        </DataArray>
        <DataArray type="Float64" Name="STRESS_ZZ" format="ascii">
          -1.826732399134e-01 -1.610700922324e-01 -1.401033051507e-01 -1.197176058287e-01 -9.982741937743e-02 -8.032029143302e-02 -6.106145991721e-02 -4.189692820088e-02 -2.265419500338e-02 -3.139859384744e-03 1.683885298013e-02 -1.823362212515e-01 -1.607460330852e-01 -1.398073643019e-01 -1.194655755443e-01 -9.963256329522e-02 -8.019336172880e-02 -6.101154718709e-02 -4.193276737540e-02 -2.278544488526e-02 -3.377861977355e-03 1.648145361462e-02 -1.813180840707e-01 -1.597578148747e-01 -1.389050447847e-01 -1.186978063440e-01 -9.903909078462e-02 -7.980546651355e-02 -6.085504502982e-02 -4.203241951810e-02 -2.316932300781e-02 -4.080130234053e-03 1.542190220069e-02 -1.795566174405e-01 -1.580486058396e-01 -1.373468407292e-01 -1.173748334399e-01 -9.801687548096e-02 -7.913240997713e-02 -6.056880673559e-02 -4.216892269846e-02 -2.377178829712e-02 -5.205527599190e-03 1.370394024416e-02 -1.769431951729e-01 -1.555162403727e-01 -1.350471418369e-01 -1.154319070037e-01 -9.651993587061e-02 -7.813975599967e-02 -6.012014579755e-02 -4.230151699141e-02 -2.453670680154e-02 -6.680735568060e-03 1.141207413579e-02 -1.733073724291e-01 -1.520025577789e-01 -1.318796115400e-01 -1.127818423152e-01 -9.449458322531e-02 -7.679337297654e-02 -5.947738359879e-02 -4.238390741214e-02 -2.538887895833e-02 -8.394529662288e-03 8.688907620779e-03 -1.683877087207e-01 -1.472709636943e-01 -1.276704310727e-01 -1.093229241072e-01 -9.189508243587e-02 -7.507728249060e-02 -5.862750677635e-02 -4.237989197871e-02 -2.624344069232e-02 -1.019419662307e-02 5.757961994477e-03 -1.617692924381e-01 -1.409619683386e-01 -1.221934360325e-01 -1.049616089909e-01 -8.871240636711e-02 -7.302008263064e-02 -5.760169007469e-02 -4.229018070247e-02 -2.702952309457e-02 -1.189202173858e-02 2.949412380648e-03 -1.527293946732e-01 -1.325003849359e-01 -1.151971537810e-01 -9.967625336164e-02 -8.502116374935e-02 -7.072597661927e-02 -5.650435368107e-02 -4.219281385347e-02 -2.774406660222e-02 -1.330349265644e-02 7.243323843601e-04 -1.396863940817e-01 -1.209544585543e-01 -1.066261353862e-01 -9.365368101038e-02 -8.103305014188e-02 -6.839547902475e-02 -5.553142026238e-02 -4.228855849624e-02 -2.855995274517e-02 -1.439447775888e-02 -3.049438194896e-04 -1.164422837947e-01 -1.061810429022e-01 -9.714395411791e-02 -8.736171003201e-02 -7.707837210477e-02 -6.628711610947e-02 -5.492640703793e-02 -4.287111093197e-02 -2.989570160919e-02 -1.561042610674e-02 -1.379820269584e-04 
        </DataArray>
        <DataArray type="Float64" Name="STRAIN_XX" format="ascii">
          9.504887282038e-03 8.201737344898e-03 7.016784766529e-03 5.935815980283e-03 4.937167555731e-03 3.994362466099e-03 3.077992582356e-03 2.156327772748e-03 1.194351725030e-03 1.514369722955e-04 -1.025903560603e-03 9.511378282944e-03 8.208687180284e-03 7.025318746765e-03 5.946240040668e-03 4.949119397914e-03 4.007050930706e-03 3.090661580189e-03 2.168781081411e-03 1.207415803663e-03 1.672189689004e-04 -1.004145673123e-03 9.533369472371e-03 8.232502665798e-03 7.053958613418e-03 5.980627469405e-03 4.987947810917e-03 4.047686235366e-03 3.130604599382e-03 2.207268939749e-03 1.246842948229e-03 2.140160815845e-04 -9.397252534724e-04 9.579405182992e-03 8.281967340416e-03 7.112044327290e-03 6.048487268759e-03 5.062603815854e-03 4.123883187092e-03 3.203480448713e-03 2.275047805161e-03 1.313243568951e-03 2.900192723415e-04 -8.355542856883e-04 9.664632989081e-03 8.372683625658e-03 7.216025841411e-03 6.166252521640e-03 5.188022917628e-03 4.247842285045e-03 3.318039299623e-03 2.376993855277e-03 1.407290237050e-03 3.918415317377e-04 -6.971817962158e-04 9.812555902364e-03 8.529002312779e-03 7.391320788920e-03 6.358237259143e-03 5.384744581904e-03 4.434926970118e-03 3.484404228598e-03 2.518286288788e-03 1.529032630982e-03 5.140447632230e-04 -5.337983331511e-04 1.005891520847e-02 8.788188140461e-03 7.676007223822e-03 6.657901541637e-03 5.677198823067e-03 4.700061456176e-03 3.710137030382e-03 2.701443735435e-03 1.676484406358e-03 6.485803523416e-04 -3.594966137407e-04 1.046024103213e-02 9.209747708713e-03 8.127902513247e-03 7.108182468222e-03 6.088342617864e-03 5.050031113662e-03 3.992545982545e-03 2.920289786477e-03 1.842639898627e-03 7.843259536883e-04 -1.944881213078e-04 1.111447264105e-02 9.898205744686e-03 8.835969600534e-03 7.754238238593e-03 6.625774139603e-03 5.470057360075e-03 4.306377746501e-03 3.148702703343e-03 2.008181472138e-03 9.066006086793e-04 -6.548528029125e-05 1.220889274501e-02 1.107817036096e-02 9.913645274625e-03 8.605015306756e-03 7.254625936123e-03 5.907373564676e-03 4.590157428646e-03 3.322704370271e-03 2.120484497976e-03 9.922186056899e-04 -2.695764234658e-06 1.475778699455e-02 1.309507760171e-02 1.128200193746e-02 9.541131860308e-03 7.865867823063e-03 6.262516169480e-03 4.741691890532e-03 3.322121016517e-03 2.035610406398e-03 9.321493518417e-04 -5.668434053267e-06 
        </DataArray>
        <DataArray type="Float64" Name="STRAIN_XY" format="ascii">
          1.057994751349e-08 -1.403843348511e-07 -3.353956733449e-07 -5.319554992452e-07 -7.342424746831e-07 -9.224823119280e-07 -1.074502646912e-06 -1.170840382351e-06 -1.204183037794e-06 -1.352925298024e-06 3.038708938907e-06 -4.402928367468e-07 -1.639625521978e-04 -3.125034136420e-04 -4.327252520664e-04 -5.162954890292e-04 -5.589486896608e-04 -5.585820834846e-04 -5.124969678820e-04 -4.145381268864e-04 -2.528928828300e-04 -8.720618596011e-06 -9.692664847865e-07 -3.280375975878e-04 -6.234040127884e-04 -8.599364850947e-04 -1.021480646166e-03 -1.100917714114e-03 -1.095800617895e-03 -1.002417508497e-03 -8.097312709776e-04 -4.944541774486e-04 -1.738467234838e-05 -1.595074839777e-06 -4.921802887891e-04 -9.308593768496e-04 -1.275172386063e-03 -1.502649732372e-03 -1.606490808832e-03 -1.587480430632e-03 -1.444183149497e-03 -1.163308043960e-03 -7.112061400711e-04 -2.582000541444e-05 -2.438556790319e-06 -6.567286696560e-04 -1.232323791937e-03 -1.669368668474e-03 -1.942514163013e-03 -2.050911039466e-03 -2.003856455472e-03 -1.806608788495e-03 -1.447554503609e-03 -8.854406643959e-04 -3.351342709674e-05 -3.707288818030e-06 -8.220902977690e-04 -1.522858591637e-03 -2.027106473131e-03 -2.314737720161e-03 -2.400059311998e-03 -2.306961495086e-03 -2.051396637246e-03 -1.628027437906e-03 -9.938057580542e-04 -3.939624034270e-05 -5.861154832259e-06 -9.879938514107e-04 -1.790306556470e-03 -2.317899448507e-03 -2.575017537544e-03 -2.604486723092e-03 -2.448559309665e-03 -2.133997026320e-03 -1.665030448276e-03 -1.007323741967e-03 -4.148053892892e-05 -1.010706460486e-05 -1.151055710872e-03 -2.001813488502e-03 -2.476471828054e-03 -2.645098703862e-03 -2.591146877121e-03 -2.369320873719e-03 -2.008593951972e-03 -1.520668481813e-03 -8.948025562283e-04 -3.617158950575e-05 -2.048492691119e-05 -1.295740656222e-03 -2.062945830359e-03 -2.361456536562e-03 -2.390387257217e-03 -2.255265392692e-03 -1.999628646237e-03 -1.637484283477e-03 -1.175758728000e-03 -6.351161354351e-04 -1.659606604212e-05 -6.458929684858e-05 -1.350987856163e-03 -1.677948656797e-03 -1.697063722351e-03 -1.609268845445e-03 -1.461132082919e-03 -1.259794814577e-03 -9.958935758099e-04 -6.561634801481e-04 -2.586577062275e-04 3.052084277475e-05 -2.760893115452e-04 -2.860732450746e-04 -1.468391621483e-04 -9.996199323836e-05 -7.613927125759e-05 -6.112969433733e-05 -4.929644048395e-05 -3.603535898151e-05 -1.404699655939e-05 3.156671355109e-05 3.897579498911e-05 
        </DataArray>
        <DataArray type="Float64" Name="STRAIN_YY" format="ascii">
          7.155088153678e-03 7.066619484274e-03 6.807549544123e-03 6.396741967093e-03 5.862975312095e-03 5.242028993256e-03 4.574428054291e-03 3.904584966556e-03 3.281708063055e-03 2.762328654861e-03 2.415777139915e-03 7.176414566139e-03 7.086417388020e-03 6.823442427600e-03 6.407120406370e-03 5.867106829079e-03 5.239817266141e-03 4.565878837357e-03 3.889173503807e-03 3.257810660838e-03 2.726901999819e-03 2.364519622266e-03 7.238460096393e-03 7.144169119884e-03 6.869279727449e-03 6.436104403693e-03 5.877263448696e-03 5.231198709406e-03 4.538853456542e-03 3.842460389245e-03 3.186698337902e-03 2.622139888169e-03 2.212644165275e-03 7.337815282233e-03 7.235782016416e-03 6.939807681645e-03 6.477442367855e-03 5.886980770410e-03 5.210555630527e-03 4.489603625147e-03 3.763414594661e-03 3.070570423460e-03 2.453246756162e-03 1.966673162984e-03 7.468298520458e-03 7.354086372887e-03 7.025642584031e-03 6.520045646212e-03 5.885118588856e-03 5.168529876746e-03 4.412077105631e-03 3.650524253699e-03 2.913387624837e-03 2.229661299336e-03 1.639130772503e-03 7.620475262221e-03 7.487785931600e-03 7.111794581669e-03 6.546796406805e-03 5.855568888954e-03 5.092575218978e-03 4.298765564489e-03 3.502431341016e-03 2.721307211615e-03 1.966002047374e-03 1.250978009787e-03 7.780183436802e-03 7.619144377572e-03 7.174532566286e-03 6.532630135135e-03 5.777676617713e-03 4.969086296840e-03 4.143181325828e-03 3.319605326969e-03 2.503320182004e-03 1.682922518636e-03 8.347569688404e-04 7.925139592024e-03 7.718327283122e-03 7.174706708755e-03 6.442330773704e-03 5.629229895258e-03 4.788917262716e-03 3.945442958564e-03 3.108164016188e-03 2.272281697804e-03 1.407038971247e-03 4.379316828850e-04 8.017058274820e-03 7.728285654992e-03 7.044110537458e-03 6.232526579081e-03 5.396472367367e-03 4.558245798193e-03 3.722184992176e-03 2.887787728128e-03 2.047761930011e-03 1.168261954782e-03 1.252714453495e-04 7.999203299044e-03 7.501318136886e-03 6.673884000722e-03 5.878850720863e-03 5.096798201939e-03 4.313288125203e-03 3.518710925542e-03 2.705883328781e-03 1.868115920946e-03 9.925943937605e-04 -2.247420181845e-05 7.368870533510e-03 6.703803934090e-03 6.088183569550e-03 5.462071454415e-03 4.811974184728e-03 4.132169126106e-03 3.417114063135e-03 2.658382989429e-03 1.842737725333e-03 9.522996569915e-04 -5.720558648061e-06 
        </DataArray>
        <DataArray type="Float64" Name="STRAIN_ZZ" format="ascii">
          0.000000000000e+00 0.000000000000e+00 0.000000000000e+00 0.000000000000e+00 0.000000000000e+00 0.000000000000e+00 0.000000000000e+00 0.000000000000e+00 0.000000000000e+00 0.000000000000e+00 0.000000000000e+00 0.000000000000e+00 0.000000000000e+00 0.000000000000e+00 0.000000000000e+00 0.000000000000e+00 0.000000000000e+00 0.000000000000e+00 0.000000000000e+00 0.000000000000e+00 0.000000000000e+00 0.000000000000e+00 0.000000000000e+00 0.000000000000e+00 0.000000000000e+00 0.000000000000e+00 0.000000000000e+00 0.000000000000e+00 0.000000000000e+00 0.000000000000e+00 0.000000000000e+00 0.000000000000e+00 0.000000000000e+00 0.000000000000e+00 0.000000000000e+00 0.000000000000e+00 0.000000000000e+00 0.000000000000e+00 0.000000000000e+00 0.000000000000e+00 0.000000000000e+00 0.000000000000e+00 0.000000000000e+00 0.000000000000e+00 0.000000000000e+00 0.000000000000e+00 0.000000000000e+00 0.000000000000e+00 0.000000000000e+00 0.000000000000e+00 0.000000000000e+00 0.000000000000e+00 0.000000000000e+00 0.000000000000e+00 0.000000000000e+00 0.000000000000e+00 0.000000000000e+00 0.000000000000e+00 0.000000000000e+00 0.000000000000e+00 0.000000000000e+00 0.000000000000e+00 0.000000000000e+00 0.000000000000e+00 0.000000000000e+00 0.000000000000e+00 0.000000000000e+00 0.000000000000e+00 0.000000000000e+00 0.000000000000e+00 0.000000000000e+00 0.000000000000e+00 0.000000000000e+00 0.000000000000e+00 0.000000000000e+00 0.000000000000e+00 0.000000000000e+00 0.000000000000e+00 0.000000000000e+00 0.000000000000e+00 0.000000000000e+00 0.000000000000e+00 0.000000000000e+00 0.000000000000e+00 0.000000000000e+00 0.000000000000e+00 0.000000000000e+00 0.000000000000e+00 0.000000000000e+00 0.000000000000e+00 0.000000000000e+00 0.000000000000e+00 0.000000000000e+00 0.000000000000e+00 0.000000000000e+00 0.000000000000e+00 0.000000000000e+00 0.000000000000e+00 0.000000000000e+00 0.000000000000e+00 0.000000000000e+00 0.000000000000e+00 0.000000000000e+00 0.000000000000e+00 0.000000000000e+00 0.000000000000e+00 0.000000000000e+00 0.000000000000e+00 0.000000000000e+00 0.000000000000e+00 0.000000000000e+00 0.000000000000e+00 0.000000000000e+00 0.000000000000e+00 0.000000000000e+00 0.000000000000e+00 0.000000000000e+00 0.000000000000e+00 0.000000000000e+00 0.000000000000e+00 0.000000000000e+00 
        </DataArray>
        <DataArray type="Float64" Name="STRAIN_PLS" format="ascii">
          0.000000000000e+00 0.000000000000e+00 0.000000000000e+00 0.000000000000e+00 0.000000000000e+00 0.000000000000e+00 0.000000000000e+00 0.000000000000e+00 0.000000000000e+00 0.000000000000e+00 0.000000000000e+00 0.000000000000e+00 0.000000000000e+00 0.000000000000e+00 0.000000000000e+00 0.000000000000e+00 0.000000000000e+00 0.000000000000e+00 0.000000000000e+00 0.000000000000e+00 0.000000000000e+00 0.000000000000e+00 0.000000000000e+00 0.000000000000e+00 0.000000000000e+00 0.000000000000e+00 0.000000000000e+00 0.000000000000e+00 0.000000000000e+00 0.000000000000e+00 0.000000000000e+00 0.000000000000e+00 0.000000000000e+00 0.000000000000e+00 0.000000000000e+00 0.000000000000e+00 0.000000000000e+00 0.000000000000e+00 0.000000000000e+00 0.000000000000e+00 0.000000000000e+00 0.000000000000e+00 0.000000000000e+00 0.000000000000e+00 0.000000000000e+00 0.000000000000e+00 0.000000000000e+00 0.000000000000e+00 0.000000000000e+00 0.000000000000e+00 0.000000000000e+00 0.000000000000e+00 0.000000000000e+00 0.000000000000e+00 0.000000000000e+00 0.000000000000e+00 0.000000000000e+00 0.000000000000e+00 0.000000000000e+00 0.000000000000e+00 0.000000000000e+00 0.000000000000e+00 0.000000000000e+00 0.000000000000e+00 0.000000000000e+00 0.000000000000e+00 0.000000000000e+00 0.000000000000e+00 0.000000000000e+00 0.000000000000e+00 0.000000000000e+00 0.000000000000e+00 0.000000000000e+00 0.000000000000e+00 0.000000000000e+00 0.000000000000e+00 0.000000000000e+00 0.000000000000e+00 0.000000000000e+00 0.000000000000e+00 0.000000000000e+00 0.000000000000e+00 0.000000000000e+00 0.000000000000e+00 0.000000000000e+00 0.000000000000e+00 0.000000000000e+00 0.000000000000e+00 0.000000000000e+00 0.000000000000e+00 0.000000000000e+00 0.000000000000e+00 0.000000000000e+00 0.000000000000e+00 0.000000000000e+00 0.000000000000e+00 0.000000000000e+00 0.000000000000e+00 0.000000000000e+00 0.000000000000e+00 0.000000000000e+00 0.000000000000e+00 0.000000000000e+00 0.000000000000e+00 0.000000000000e+00 0.000000000000e+00 0.000000000000e+00 0.000000000000e+00 0.000000000000e+00 0.000000000000e+00 0.000000000000e+00 0.000000000000e+00 0.000000000000e+00 0.000000000000e+00 0.000000000000e+00 0.000000000000e+00 0.000000000000e+00 0.000000000000e+00 0.000000000000e+00 0.000000000000e+00 0.000000000000e+00 
        </DataArray>
        <DataArray type="Float64" Name="DILATANCY" format="ascii">
          0.000000000000e+00 0.000000000000e+00 0.000000000000e+00 0.000000000000e+00 0.000000000000e+00 0.000000000000e+00 0.000000000000e+00 0.000000000000e+00 0.000000000000e+00 0.000000000000e+00 0.000000000000e+00 0.000000000000e+00 0.000000000000e+00 0.000000000000e+00 0.000000000000e+00 0.000000000000e+00 0.000000000000e+00 0.000000000000e+00 0.000000000000e+00 0.000000000000e+00 0.000000000000e+00 0.000000000000e+00 0.000000000000e+00 0.000000000000e+00 0.000000000000e+00 0.000000000000e+00 0.000000000000e+00 0.000000000000e+00 0.000000000000e+00 0.000000000000e+00 0.000000000000e+00 0.000000000000e+00 0.000000000000e+00 0.000000000000e+00 0.000000000000e+00 0.000000000000e+00 0.000000000000e+00 0.000000000000e+00 0.000000000000e+00 0.000000000000e+00 0.000000000000e+00 0.000000000000e+00 0.000000000000e+00 0.000000000000e+00 0.000000000000e+00 0.000000000000e+00 0.000000000000e+00 0.000000000000e+00 0.000000000000e+00 0.000000000000e+00 0.000000000000e+00 0.000000000000e+00 0.000000000000e+00 0.000000000000e+00 0.000000000000e+00 0.000000000000e+00 0.000000000000e+00 0.000000000000e+00 0.000000000000e+00 0.000000000000e+00 0.000000000000e+00 0.000000000000e+00 0.000000000000e+00 0.000000000000e+00 0.000000000000e+00 0.000000000000e+00 0.000000000000e+00 0.000000000000e+00 0.000000000000e+00 0.000000000000e+00 0.000000000000e+00 0.000000000000e+00 0.000000000000e+00 0.000000000000e+00 0.000000000000e+00 0.000000000000e+00 0.000000000000e+00 0.000000000000e+00 0.000000000000e+00 0.000000000000e+00 0.000000000000e+00 0.000000000000e+00 0.000000000000e+00 0.000000000000e+00 0.000000000000e+00 0.000000000000e+00 0.000000000000e+00 0.000000000000e+00 0.000000000000e+00 0.000000000000e+00 0.000000000000e+00 0.000000000000e+00 0.000000000000e+00 0.000000000000e+00 0.000000000000e+00 0.000000000000e+00 0.000000000000e+00 0.000000000000e+00 0.000000000000e+00 0.000000000000e+00 0.000000000000e+00 0.000000000000e+00 0.000000000000e+00 0.000000000000e+00 0.000000000000e+00 0.000000000000e+00 0.000000000000e+00 0.000000000000e+00 0.000000000000e+00 0.000000000000e+00 0.000000000000e+00 0.000000000000e+00 0.000000000000e+00 0.000000000000e+00 0.000000000000e+00 0.000000000000e+00 0.000000000000e+00 0.000000000000e+00 0.000000000000e+00 0.000000000000e+00 0.000000000000e+00 
        </DataArray>
        <DataArray type="Float64" Name="NODAL_VELOCITY1" NumberOfComponents="3" format="ascii">
          8.840530334722e-01 -7.028219984189e-02 0.000000000000e+00 9.917020603638e-01 -5.013661367077e-02 0.000000000000e+00 9.799447161638e-01 -1.096395794197e-02 0.000000000000e+00 9.855161751607e-01 -4.943891485741e-03 0.000000000000e+00 9.895893634701e-01 -2.810085964581e-03 0.000000000000e+00 9.923796569460e-01 -1.783213416929e-03 0.000000000000e+00 9.942899781487e-01 -1.184428575835e-03 0.000000000000e+00 9.955802810680e-01 -7.887727141842e-04 0.000000000000e+00 9.964082925801e-01 -5.023029452737e-04 0.000000000000e+00 9.968679509016e-01 -2.771537403522e-04 0.000000000000e+00 9.971989817456e-01 -1.973560214930e-04 0.000000000000e+00 9.758969071569e-01 -6.121359868615e-02 0.000000000000e+00 9.572218587878e-01 -2.625641400548e-02 0.000000000000e+00 9.804107809514e-01 -1.355283635487e-02 0.000000000000e+00 9.863599913523e-01 -7.321420746788e-03 0.000000000000e+00 9.901798360143e-01 -4.503467081999e-03 0.000000000000e+00 9.927813970209e-01 -2.963280424256e-03 0.000000000000e+00 9.945761261452e-01 -2.001285643112e-03 0.000000000000e+00 9.957954454486e-01 -1.340257710711e-03 0.000000000000e+00 9.965805673483e-01 -8.503033195585e-04 0.000000000000e+00 9.970172297288e-01 -4.591153934971e-04 0.000000000000e+00 9.973313071840e-01 -2.686321136680e-04 0.000000000000e+00 9.913153510298e-01 -3.207314132748e-02 0.000000000000e+00 9.866969824504e-01 -2.550756954156e-02 0.000000000000e+00 9.855186533300e-01 -1.673468456396e-02 0.000000000000e+00 9.893080254481e-01 -1.096683147721e-02 0.000000000000e+00 9.920064081921e-01 -7.354068457354e-03 0.000000000000e+00 9.940037745537e-01 -5.048723945628e-03 0.000000000000e+00 9.954460376432e-01 -3.481904466507e-03 0.000000000000e+00 9.964495687099e-01 -2.353949478980e-03 0.000000000000e+00 9.971032486869e-01 -1.496099020049e-03 0.000000000000e+00 9.974681467989e-01 -8.010614221866e-04 0.000000000000e+00 9.977818155095e-01 -4.209395588154e-04 0.000000000000e+00 9.961380665612e-01 -2.347369664311e-02 0.000000000000e+00 9.942072215245e-01 -2.111223736524e-02 0.000000000000e+00 9.924781908440e-01 -1.678440224805e-02 0.000000000000e+00 9.931271428210e-01 -1.245665460903e-02 0.000000000000e+00 9.945234403849e-01 -9.027444877471e-03 0.000000000000e+00 9.957744498851e-01 -6.461885440126e-03 0.000000000000e+00 9.967467172825e-01 -4.554310973662e-03 0.000000000000e+00 9.974456214775e-01 -3.112043152722e-03 0.000000000000e+00 9.979074370390e-01 -1.986161000859e-03 0.000000000000e+00 9.981661227579e-01 -1.061388235427e-03 0.000000000000e+00 9.984490321313e-01 -5.309520535941e-04 0.000000000000e+00 9.983459588996e-01 -2.009994521949e-02 0.000000000000e+00 9.976297337117e-01 -1.885797396327e-02 0.000000000000e+00 9.967527499224e-01 -1.616528770699e-02 0.000000000000e+00 9.967809401644e-01 -1.289955642760e-02 0.000000000000e+00 9.972786522463e-01 -9.815403659590e-03 0.000000000000e+00 9.978490910843e-01 -7.230306397880e-03 0.000000000000e+00 9.983253147435e-01 -5.174511367742e-03 0.000000000000e+00 9.986767200150e-01 -3.562840667827e-03 0.000000000000e+00 9.989108481003e-01 -2.280788000766e-03 0.000000000000e+00 9.990412385777e-01 -1.217497160013e-03 0.000000000000e+00 9.992671615558e-01 -5.892085072844e-04 0.000000000000e+00 9.997436017666e-01 -1.925090022236e-02 0.000000000000e+00 9.998935818953e-01 -1.828472952585e-02 0.000000000000e+00 9.999728710569e-01 -1.599330807591e-02 0.000000000000e+00 1.000027859162e+00 -1.301357967812e-02 0.000000000000e+00 1.000047043289e+00 -1.003413122078e-02 0.000000000000e+00 1.000044656211e+00 -7.444358887407e-03 0.000000000000e+00 1.000035350687e+00 -5.346388146399e-03 0.000000000000e+00 1.000025447013e+00 -3.686655252373e-03 0.000000000000e+00 1.000016436402e+00 -2.360201955758e-03 0.000000000000e+00 1.000008306474e+00 -1.257248637952e-03 0.000000000000e+00 1.000156497103e+00 -5.911330830704e-04 0.000000000000e+00 1.001004988644e+00 -2.040335887668e-02 0.000000000000e+00 1.002136852668e+00 -1.925340361282e-02 0.000000000000e+00 1.003233404336e+00 -1.647599866307e-02 0.000000000000e+00 1.003318136856e+00 -1.301735602478e-02 0.000000000000e+00 1.002834548326e+00 -9.777608537108e-03 0.000000000000e+00 1.002244093037e+00 -7.129384980522e-03 0.000000000000e+00 1.001744992004e+00 -5.070878745975e-03 0.000000000000e+00 1.001372886168e+00 -3.478036311346e-03 0.000000000000e+00 1.001120938680e+00 -2.219084152229e-03 0.000000000000e+00 1.000974818439e+00 -1.177571899688e-03 0.000000000000e+00 1.001030912799e+00 -5.365572965386e-04 0.000000000000e+00 1.002597938965e+00 -2.418987739479e-02 0.000000000000e+00 1.005532467558e+00 -2.217400723888e-02 0.000000000000e+00 1.007727075139e+00 -1.753481087660e-02 0.000000000000e+00 1.007118066850e+00 -1.260369708720e-02 0.000000000000e+00 1.005621817098e+00 -8.832105574002e-03 0.000000000000e+00 1.004322925735e+00 -6.208349417325e-03 0.000000000000e+00 1.003319925900e+00 -4.331748250008e-03 0.000000000000e+00 1.002599342392e+00 -2.940887406738e-03 0.000000000000e+00 1.002120873886e+00 -1.865086122749e-03 0.000000000000e+00 1.001848221263e+00 -9.840918831603e-04 0.000000000000e+00 1.001805526826e+00 -4.297203242628e-04 0.000000000000e+00 1.004979134793e+00 -3.346025879930e-02 0.000000000000e+00 1.013472021671e+00 -2.845623723713e-02 0.000000000000e+00 1.015650143499e+00 -1.820905553400e-02 0.000000000000e+00 1.010957739663e+00 -1.051921890575e-02 0.000000000000e+00 1.008141195443e+00 -6.788865376677e-03 0.000000000000e+00 1.006082748655e+00 -4.580608760489e-03 0.000000000000e+00 1.004608704245e+00 -3.129998273708e-03 0.000000000000e+00 1.003585906950e+00 -2.101259094742e-03 0.000000000000e+00 1.002918836507e+00 -1.323093042414e-03 0.000000000000e+00 1.002543279622e+00 -6.923616338436e-04 0.000000000000e+00 1.002404422574e+00 -2.797612401718e-04 0.000000000000e+00 1.002299997249e+00 -6.240174072056e-02 0.000000000000e+00 1.054721554113e+00 -4.224928668874e-02 0.000000000000e+00 1.019071969951e+00 -1.030775635379e-02 0.000000000000e+00 1.013837160191e+00 -5.657168050418e-03 0.000000000000e+00 1.009911957265e+00 -3.468292726168e-03 0.000000000000e+00 1.007271118239e+00 -2.285933542168e-03 0.000000000000e+00 1.005456023876e+00 -1.542084906230e-03 0.000000000000e+00 1.004225269349e+00 -1.026599950263e-03 0.000000000000e+00 1.003432660811e+00 -6.408327389683e-04 0.000000000000e+00 1.002990210602e+00 -3.291316723348e-04 0.000000000000e+00 1.002768158311e+00 -1.009123679989e-04 0.000000000000e+00 1.105555975715e+00 -1.035097776561e-01 0.000000000000e+00 1.007142223420e+00 -1.618347770080e-02 0.000000000000e+00 1.022774773456e+00 -4.821082546850e-03 0.000000000000e+00 1.015023951674e+00 -2.548864416312e-03 0.000000000000e+00 1.010633242007e+00 -1.551101859069e-03 0.000000000000e+00 1.007729466844e+00 -1.016512538693e-03 0.000000000000e+00 1.005773066924e+00 -6.827875251194e-04 0.000000000000e+00 1.004460160929e+00 -4.522295232909e-04 0.000000000000e+00 1.003619211374e+00 -2.795997728449e-04 0.000000000000e+00 1.003151047814e+00 -1.395984189081e-04 0.000000000000e+00 1.002916687014e+00 -2.029952149223e-05 0.000000000000e+00 
        </DataArray>
        <DataArray type="Float64" Name="DISPLACEMENT" NumberOfComponents="3" format="ascii">
          0.000000000000e+00 0.000000000000e+00 0.000000000000e+00 8.853824197058e-04 0.000000000000e+00 0.000000000000e+00 1.646372637838e-03 0.000000000000e+00 0.000000000000e+00 2.294089082372e-03 0.000000000000e+00 0.000000000000e+00 2.837846005972e-03 0.000000000000e+00 0.000000000000e+00 3.284543779976e-03 0.000000000000e+00 0.000000000000e+00 3.638285583583e-03 0.000000000000e+00 0.000000000000e+00 3.900120563672e-03 0.000000000000e+00 0.000000000000e+00 4.067769032076e-03 0.000000000000e+00 0.000000000000e+00 4.135175509439e-03 0.000000000000e+00 0.000000000000e+00 4.091712276052e-03 0.000000000000e+00 0.000000000000e+00 0.000000000000e+00 7.156846268250e-04 0.000000000000e+00 8.860672751271e-04 7.067935824594e-04 0.000000000000e+00 1.647846610590e-03 6.807850350842e-04 0.000000000000e+00 2.296526549784e-03 6.395720502527e-04 0.000000000000e+00 2.841418240505e-03 5.860621491837e-04 0.000000000000e+00 3.289362823993e-03 5.238538235848e-04 0.000000000000e+00 3.644384655230e-03 4.570003114667e-04 0.000000000000e+00 3.907484061205e-03 3.899207638906e-04 0.000000000000e+00 4.076411935665e-03 3.274936239276e-04 0.000000000000e+00 4.145259274456e-03 2.753186046573e-04 0.000000000000e+00 4.103668489492e-03 2.400817513865e-04 0.000000000000e+00 0.000000000000e+00 1.435508764595e-03 0.000000000000e+00 8.883983084844e-04 1.417439703558e-03 0.000000000000e+00 1.652844797271e-03 1.364639676209e-03 0.000000000000e+00 2.304724387409e-03 1.281104483102e-03 0.000000000000e+00 2.853325473483e-03 1.172837646295e-03 0.000000000000e+00 3.305287494721e-03 1.047166395943e-03 0.000000000000e+00 3.664374044444e-03 9.122169749013e-04 0.000000000000e+00 3.931419270522e-03 7.767193362509e-04 0.000000000000e+00 4.104253179695e-03 6.502065162668e-04 0.000000000000e+00 4.177407013355e-03 5.435850999400e-04 0.000000000000e+00 4.141362063381e-03 4.699595715915e-04 0.000000000000e+00 0.000000000000e+00 2.163343637087e-03 0.000000000000e+00 8.932451274280e-04 2.135501396944e-03 0.000000000000e+00 1.663147806619e-03 2.054278292021e-03 0.000000000000e+00 2.321409551288e-03 1.926139728748e-03 0.000000000000e+00 2.877219513265e-03 1.760608363559e-03 0.000000000000e+00 3.336796696538e-03 1.569020325160e-03 0.000000000000e+00 3.703393285415e-03 1.363613384967e-03 0.000000000000e+00 3.977508625142e-03 1.157199911780e-03 0.000000000000e+00 4.157067133881e-03 9.634958255652e-04 0.000000000000e+00 4.237332803048e-03 7.980775910222e-04 0.000000000000e+00 4.210266471472e-03 6.798419482317e-04 0.000000000000e+00 0.000000000000e+00 2.902571593871e-03 0.000000000000e+00 9.021527911102e-04 2.863973913315e-03 0.000000000000e+00 1.681913568581e-03 2.751684058308e-03 0.000000000000e+00 2.351393040557e-03 2.575358764755e-03 0.000000000000e+00 2.919482070106e-03 2.348783753770e-03 0.000000000000e+00 3.391623825980e-03 2.087757089280e-03 0.000000000000e+00 3.770214330403e-03 1.808669366959e-03 0.000000000000e+00 4.055197394642e-03 1.528043704245e-03 0.000000000000e+00 4.244572645193e-03 1.263025750938e-03 0.000000000000e+00 4.334619476768e-03 1.032795649444e-03 0.000000000000e+00 4.319510302343e-03 8.608717614342e-04 0.000000000000e+00 0.000000000000e+00 3.655779902778e-03 0.000000000000e+00 9.175307197272e-04 3.604919579609e-03 0.000000000000e+00 1.714062402888e-03 3.457623910373e-03 0.000000000000e+00 2.402098423851e-03 3.228043635940e-03 0.000000000000e+00 2.989778976103e-03 2.935423659660e-03 0.000000000000e+00 3.481214367844e-03 2.600633176798e-03 0.000000000000e+00 3.877535401949e-03 2.244194982318e-03 0.000000000000e+00 4.177930241642e-03 1.885795377232e-03 0.000000000000e+00 4.380466420841e-03 1.544968061359e-03 0.000000000000e+00 4.482694373960e-03 1.242928958541e-03 0.000000000000e+00 4.481779346393e-03 1.005842529119e-03 0.000000000000e+00 0.000000000000e+00 4.424347523257e-03 0.000000000000e+00 9.430666899489e-04 4.358932903232e-03 0.000000000000e+00 1.767100457867e-03 4.170938696652e-03 0.000000000000e+00 2.484635060061e-03 3.881391160320e-03 0.000000000000e+00 3.102098995153e-03 3.516767952142e-03 0.000000000000e+00 3.621486551432e-03 3.103605834292e-03 0.000000000000e+00 4.042355927733e-03 2.666306269160e-03 0.000000000000e+00 4.363173127764e-03 2.226964919695e-03 0.000000000000e+00 4.582219325281e-03 1.806261691806e-03 0.000000000000e+00 4.698526881157e-03 1.425422872370e-03 0.000000000000e+00 4.712924212833e-03 1.110199279579e-03 0.000000000000e+00 0.000000000000e+00 5.207768672608e-03 0.000000000000e+00 9.846581943377e-04 5.124199712271e-03 0.000000000000e+00 1.852911178560e-03 4.887364584447e-03 0.000000000000e+00 2.615937657320e-03 4.529636222858e-03 0.000000000000e+00 3.276602678884e-03 4.086931343537e-03 0.000000000000e+00 3.834010941834e-03 3.591488991275e-03 0.000000000000e+00 4.286383771208e-03 3.070793948546e-03 0.000000000000e+00 4.632127102073e-03 2.548401813223e-03 0.000000000000e+00 4.870322158208e-03 2.044966702793e-03 0.000000000000e+00 5.001694145671e-03 1.579598659932e-03 0.000000000000e+00 5.030944934400e-03 1.173377306291e-03 0.000000000000e+00 0.000000000000e+00 6.002326241666e-03 0.000000000000e+00 1.052752537030e-03 5.894502250546e-03 0.000000000000e+00 1.991860273146e-03 5.597448476806e-03 0.000000000000e+00 2.822901887297e-03 5.163172551565e-03 0.000000000000e+00 3.542621727157e-03 4.638215525581e-03 0.000000000000e+00 4.147653123994e-03 4.058907161784e-03 0.000000000000e+00 4.636416960799e-03 3.454251459155e-03 0.000000000000e+00 5.008943176341e-03 2.848242850922e-03 0.000000000000e+00 5.266535549998e-03 2.260828390969e-03 0.000000000000e+00 5.412183839944e-03 1.707684268391e-03 0.000000000000e+00 5.453758299990e-03 1.200453938346e-03 0.000000000000e+00 0.000000000000e+00 6.797941853969e-03 0.000000000000e+00 1.169691525064e-03 6.654067993398e-03 0.000000000000e+00 2.222738777943e-03 6.283446602185e-03 0.000000000000e+00 3.149471722779e-03 5.768938246596e-03 0.000000000000e+00 3.942557768758e-03 5.162988978044e-03 0.000000000000e+00 4.600386951681e-03 4.502528908890e-03 0.000000000000e+00 5.124723889598e-03 3.816309930270e-03 0.000000000000e+00 5.519598602576e-03 3.127929617917e-03 0.000000000000e+00 5.790822603093e-03 2.456557407944e-03 0.000000000000e+00 5.945721941098e-03 1.815066003130e-03 0.000000000000e+00 5.994466713711e-03 1.203810807274e-03 0.000000000000e+00 0.000000000000e+00 7.566001894341e-03 0.000000000000e+00 1.403602434204e-03 7.363317803574e-03 0.000000000000e+00 2.623237178515e-03 6.921175711258e-03 0.000000000000e+00 3.664517872655e-03 6.335681054519e-03 0.000000000000e+00 4.534525239825e-03 5.658158606097e-03 0.000000000000e+00 5.240339074955e-03 4.924538651888e-03 0.000000000000e+00 5.789718854919e-03 4.162806266561e-03 0.000000000000e+00 6.191818830219e-03 3.395765017525e-03 0.000000000000e+00 6.458292024425e-03 2.641571253544e-03 0.000000000000e+00 6.604822176390e-03 1.911574824303e-03 0.000000000000e+00 6.650747319035e-03 1.201997219914e-03 0.000000000000e+00 
        </DataArray>
        <DataArray type="Float64" Name="DENSITY" format="ascii">
          8.917079500000e-07 9.025404268215e-07 9.133724904737e-07 9.242038411550e-07 9.350343021043e-07 9.458638035793e-07 9.566923670912e-07 9.675200898617e-07 9.783471294615e-07 9.891736885962e-07 1.000000000000e-06 8.917079500000e-07 9.025404268215e-07 9.133724904737e-07 9.242038411550e-07 9.350343021043e-07 9.458638035793e-07 9.566923670912e-07 9.675200898617e-07 9.783471294615e-07 9.891736885962e-07 1.000000000000e-06 8.917079500000e-07 9.025404268215e-07 9.133724904737e-07 9.242038411550e-07 9.350343021043e-07 9.458638035793e-07 9.566923670912e-07 9.675200898617e-07 9.783471294615e-07 9.891736885962e-07 1.000000000000e-06 8.917079500000e-07 9.025404268215e-07 9.133724904737e-07 9.242038411550e-07 9.350343021043e-07 9.458638035793e-07 9.566923670912e-07 9.675200898617e-07 9.783471294615e-07 9.891736885962e-07 1.000000000000e-06 8.917079500000e-07 9.025404268215e-07 9.133724904737e-07 9.242038411550e-07 9.350343021043e-07 9.458638035793e-07 9.566923670912e-07 9.675200898617e-07 9.783471294615e-07 9.891736885962e-07 1.000000000000e-06 8.917079500000e-07 9.025404268215e-07 9.133724904737e-07 9.242038411550e-07 9.350343021043e-07 9.458638035793e-07 9.566923670912e-07 9.675200898617e-07 9.783471294615e-07 9.891736885962e-07 1.000000000000e-06 8.917079500000e-07 9.025404268215e-07 9.133724904737e-07 9.242038411550e-07 9.350343021043e-07 9.458638035793e-07 9.566923670912e-07 9.675200898617e-07 9.783471294615e-07 9.891736885962e-07 1.000000000000e-06 8.917079500000e-07 9.025404268215e-07 9.133724904737e-07 9.242038411550e-07 9.350343021043e-07 9.458638035793e-07 9.566923670912e-07 9.675200898617e-07 9.783471294615e-07 9.891736885962e-07 1.000000000000e-06 8.917079500000e-07 9.025404268215e-07 9.133724904737e-07 9.242038411550e-07 9.350343021043e-07 9.458638035793e-07 9.566923670912e-07 9.675200898617e-07 9.783471294615e-07 9.891736885962e-07 1.000000000000e-06 8.917079500000e-07 9.025404268215e-07 9.133724904737e-07 9.242038411550e-07 9.350343021043e-07 9.458638035793e-07 9.566923670912e-07 9.675200898617e-07 9.783471294615e-07 9.891736885962e-07 1.000000000000e-06 8.917079500000e-07 9.025404268215e-07 9.133724904737e-07 9.242038411550e-07 9.350343021043e-07 9.458638035793e-07 9.566923670912e-07 9.675200898617e-07 9.783471294615e-07 9.891736885962e-07 1.000000000000e-06 
        </DataArray>
        <DataArray type="Float64" Name="VISCOSITY" format="ascii">
          1.278000000000e-09 1.278000000000e-09 1.278000000000e-09 1.278000000000e-09 1.278000000000e-09 1.278000000000e-09 1.278000000000e-09 1.278000000000e-09 1.278000000000e-09 1.278000000000e-09 1.278000000000e-09 1.278000000000e-09 1.278000000000e-09 1.278000000000e-09 1.278000000000e-09 1.278000000000e-09 1.278000000000e-09 1.278000000000e-09 1.278000000000e-09 1.278000000000e-09 1.278000000000e-09 1.278000000000e-09 1.278000000000e-09 1.278000000000e-09 1.278000000000e-09 1.278000000000e-09 1.278000000000e-09 1.278000000000e-09 1.278000000000e-09 1.278000000000e-09 1.278000000000e-09 1.278000000000e-09 1.278000000000e-09 1.278000000000e-09 1.278000000000e-09 1.278000000000e-09 1.278000000000e-09 1.278000000000e-09 1.278000000000e-09 1.278000000000e-09 1.278000000000e-09 1.278000000000e-09 1.278000000000e-09 1.278000000000e-09 1.278000000000e-09 1.278000000000e-09 1.278000000000e-09 1.278000000000e-09 1.278000000000e-09 1.278000000000e-09 1.278000000000e-09 1.278000000000e-09 1.278000000000e-09 1.278000000000e-09 1.278000000000e-09 1.278000000000e-09 1.278000000000e-09 1.278000000000e-09 1.278000000000e-09 1.278000000000e-09 1.278000000000e-09 1.278000000000e-09 1.278000000000e-09 1.278000000000e-09 1.278000000000e-09 1.278000000000e-09 1.278000000000e-09 1.278000000000e-09 1.278000000000e-09 1.278000000000e-09 1.278000000000e-09 1.278000000000e-09 1.278000000000e-09 1.278000000000e-09 1.278000000000e-09 1.278000000000e-09 1.278000000000e-09 1.278000000000e-09 1.278000000000e-09 1.278000000000e-09 1.278000000000e-09 1.278000000000e-09 1.278000000000e-09 1.278000000000e-09 1.278000000000e-09 1.278000000000e-09 1.278000000000e-09 1.278000000000e-09 1.278000000000e-09 1.278000000000e-09 1.278000000000e-09 1.278000000000e-09 1.278000000000e-09 1.278000000000e-09 1.278000000000e-09 1.278000000000e-09 1.278000000000e-09 1.278000000000e-09 1.278000000000e-09 1.278000000000e-09 1.278000000000e-09 1.278000000000e-09 1.278000000000e-09 1.278000000000e-09 1.278000000000e-09 1.278000000000e-09 1.278000000000e-09 1.278000000000e-09 1.278000000000e-09 1.278000000000e-09 1.278000000000e-09 1.278000000000e-09 1.278000000000e-09 1.278000000000e-09 1.278000000000e-09 1.278000000000e-09 1.278000000000e-09 1.278000000000e-09 1.278000000000e-09 1.278000000000e-09 1.278000000000e-09 
        </DataArray>
        <DataArray type="Float64" Name="SPECIFIC_HEAT_CAPACITY" format="ascii">
          4.680000000000e+03 4.680000000000e+03 4.680000000000e+03 4.680000000000e+03 4.680000000000e+03 4.680000000000e+03 4.680000000000e+03 4.680000000000e+03 4.680000000000e+03 4.680000000000e+03 4.680000000000e+03 4.680000000000e+03 4.680000000000e+03 4.680000000000e+03 4.680000000000e+03 4.680000000000e+03 4.680000000000e+03 4.680000000000e+03 4.680000000000e+03 4.680000000000e+03 4.680000000000e+03 4.680000000000e+03 4.680000000000e+03 4.680000000000e+03 4.680000000000e+03 4.680000000000e+03 4.680000000000e+03 4.680000000000e+03 4.680000000000e+03 4.680000000000e+03 4.680000000000e+03 4.680000000000e+03 4.680000000000e+03 4.680000000000e+03 4.680000000000e+03 4.680000000000e+03 4.680000000000e+03 4.680000000000e+03 4.680000000000e+03 4.680000000000e+03 4.680000000000e+03 4.680000000000e+03 4.680000000000e+03 4.680000000000e+03 4.680000000000e+03 4.680000000000e+03 4.680000000000e+03 4.680000000000e+03 4.680000000000e+03 4.680000000000e+03 4.680000000000e+03 4.680000000000e+03 4.680000000000e+03 4.680000000000e+03 4.680000000000e+03 4.680000000000e+03 4.680000000000e+03 4.680000000000e+03 4.680000000000e+03 4.680000000000e+03 4.680000000000e+03 4.680000000000e+03 4.680000000000e+03 4.680000000000e+03 4.680000000000e+03 4.680000000000e+03 4.680000000000e+03 4.680000000000e+03 4.680000000000e+03 4.680000000000e+03 4.680000000000e+03 4.680000000000e+03 4.680000000000e+03 4.680000000000e+03 4.680000000000e+03 4.680000000000e+03 4.680000000000e+03 4.680000000000e+03 4.680000000000e+03 4.680000000000e+03 4.680000000000e+03 4.680000000000e+03 4.680000000000e+03 4.680000000000e+03 4.680000000000e+03 4.680000000000e+03 4.680000000000e+03 4.680000000000e+03 4.680000000000e+03 4.680000000000e+03 4.680000000000e+03 4.680000000000e+03 4.680000000000e+03 4.680000000000e+03 4.680000000000e+03 4.680000000000e+03 4.680000000000e+03 4.680000000000e+03 4.680000000000e+03 4.680000000000e+03 4.680000000000e+03 4.680000000000e+03 4.680000000000e+03 4.680000000000e+03 4.680000000000e+03 4.680000000000e+03 4.680000000000e+03 4.680000000000e+03 4.680000000000e+03 4.680000000000e+03 4.680000000000e+03 4.680000000000e+03 4.680000000000e+03 4.680000000000e+03 4.680000000000e+03 4.680000000000e+03 4.680000000000e+03 4.680000000000e+03 4.680000000000e+03 4.680000000000e+03 4.680000000000e+03 
        </DataArray>
        <DataArray type="Float64" Name="HEAT_CONDUCTIVITY" format="ascii">
          6.000000000000e-01 6.000000000000e-01 6.000000000000e-01 6.000000000000e-01 6.000000000000e-01 6.000000000000e-01 6.000000000000e-01 6.000000000000e-01 6.000000000000e-01 6.000000000000e-01 6.000000000000e-01 6.000000000000e-01 6.000000000000e-01 6.000000000000e-01 6.000000000000e-01 6.000000000000e-01 6.000000000000e-01 6.000000000000e-01 6.000000000000e-01 6.000000000000e-01 6.000000000000e-01 6.000000000000e-01 6.000000000000e-01 6.000000000000e-01 6.000000000000e-01 6.000000000000e-01 6.000000000000e-01 6.000000000000e-01 6.000000000000e-01 6.000000000000e-01 6.000000000000e-01 6.000000000000e-01 6.000000000000e-01 6.000000000000e-01 6.000000000000e-01 6.000000000000e-01 6.000000000000e-01 6.000000000000e-01 6.000000000000e-01 6.000000000000e-01 6.000000000000e-01 6.000000000000e-01 6.000000000000e-01 6.000000000000e-01 6.000000000000e-01 6.000000000000e-01 6.000000000000e-01 6.000000000000e-01 6.000000000000e-01 6.000000000000e-01 6.000000000000e-01 6.000000000000e-01 6.000000000000e-01 6.000000000000e-01 6.000000000000e-01 6.000000000000e-01 6.000000000000e-01 6.000000000000e-01 6.000000000000e-01 6.000000000000e-01 6.000000000000e-01 6.000000000000e-01 6.000000000000e-01 6.000000000000e-01 6.000000000000e-01 6.000000000000e-01 6.000000000000e-01 6.000000000000e-01 6.000000000000e-01 6.000000000000e-01 6.000000000000e-01 6.000000000000e-01 6.000000000000e-01 6.000000000000e-01 6.000000000000e-01 6.000000000000e-01 6.000000000000e-01 6.000000000000e-01 6.000000000000e-01 6.000000000000e-01 6.000000000000e-01 6.000000000000e-01 6.000000000000e-01 6.000000000000e-01 6.000000000000e-01 6.000000000000e-01 6.000000000000e-01 6.000000000000e-01 6.000000000000e-01 6.000000000000e-01 6.000000000000e-01 6.000000000000e-01 6.000000000000e-01 6.000000000000e-01 6.000000000000e-01 6.000000000000e-01 6.000000000000e-01 6.000000000000e-01 6.000000000000e-01 6.000000000000e-01 6.000000000000e-01 6.000000000000e-01 6.000000000000e-01 6.000000000000e-01 6.000000000000e-01 6.000000000000e-01 6.000000000000e-01 6.000000000000e-01 6.000000000000e-01 6.000000000000e-01 6.000000000000e-01 6.000000000000e-01 6.000000000000e-01 6.000000000000e-01 6.000000000000e-01 6.000000000000e-01 6.000000000000e-01 6.000000000000e-01 6.000000000000e-01 6.000000000000e-01 6.000000000000e-01 
        </DataArray>
      </PointData>
      <CellData>
        <DataArray type="Float64" Name="DENSITY" format="ascii">
          8.971241884108e-07 9.079564586476e-07 9.187881658143e-07 9.296190716297e-07 9.404490528418e-07 9.512780853352e-07 9.621062284764e-07 9.729336096616e-07 9.837604090288e-07 9.945868442981e-07 8.971241884108e-07 9.079564586476e-07 9.187881658143e-07 9.296190716297e-07 9.404490528418e-07 9.512780853352e-07 9.621062284764e-07 9.729336096616e-07 9.837604090288e-07 9.945868442981e-07 8.971241884108e-07 9.079564586476e-07 9.187881658143e-07 9.296190716297e-07 9.404490528418e-07 9.512780853352e-07 9.621062284764e-07 9.729336096616e-07 9.837604090288e-07 9.945868442981e-07 8.971241884108e-07 9.079564586476e-07 9.187881658143e-07 9.296190716297e-07 9.404490528418e-07 9.512780853352e-07 9.621062284764e-07 9.729336096616e-07 9.837604090288e-07 9.945868442981e-07 8.971241884108e-07 9.079564586476e-07 9.187881658143e-07 9.296190716297e-07 9.404490528418e-07 9.512780853352e-07 9.621062284764e-07 9.729336096616e-07 9.837604090288e-07 9.945868442981e-07 8.971241884108e-07 9.079564586476e-07 9.187881658143e-07 9.296190716297e-07 9.404490528418e-07 9.512780853352e-07 9.621062284764e-07 9.729336096616e-07 9.837604090288e-07 9.945868442981e-07 8.971241884108e-07 9.079564586476e-07 9.187881658143e-07 9.296190716297e-07 9.404490528418e-07 9.512780853352e-07 9.621062284764e-07 9.729336096616e-07 9.837604090288e-07 9.945868442981e-07 8.971241884108e-07 9.079564586476e-07 9.187881658143e-07 9.296190716297e-07 9.404490528418e-07 9.512780853352e-07 9.621062284764e-07 9.729336096616e-07 9.837604090288e-07 9.945868442981e-07 8.971241884108e-07 9.079564586476e-07 9.187881658143e-07 9.296190716297e-07 9.404490528418e-07 9.512780853352e-07 9.621062284764e-07 9.729336096616e-07 9.837604090288e-07 9.945868442981e-07 8.971241884108e-07 9.079564586476e-07 9.187881658143e-07 9.296190716297e-07 9.404490528418e-07 9.512780853352e-07 9.621062284764e-07 9.729336096616e-07 9.837604090288e-07 9.945868442981e-07 
        </DataArray>
        <DataArray type="Float64" Name="VISCOSITY" format="ascii">
          1.278000000000e-09 1.278000000000e-09 1.278000000000e-09 1.278000000000e-09 1.278000000000e-09 1.278000000000e-09 1.278000000000e-09 1.278000000000e-09 1.278000000000e-09 1.278000000000e-09 1.278000000000e-09 1.278000000000e-09 1.278000000000e-09 1.278000000000e-09 1.278000000000e-09 1.278000000000e-09 1.278000000000e-09 1.278000000000e-09 1.278000000000e-09 1.278000000000e-09 1.278000000000e-09 1.278000000000e-09 1.278000000000e-09 1.278000000000e-09 1.278000000000e-09 1.278000000000e-09 1.278000000000e-09 1.278000000000e-09 1.278000000000e-09 1.278000000000e-09 1.278000000000e-09 1.278000000000e-09 1.278000000000e-09 1.278000000000e-09 1.278000000000e-09 1.278000000000e-09 1.278000000000e-09 1.278000000000e-09 1.278000000000e-09 1.278000000000e-09 1.278000000000e-09 1.278000000000e-09 1.278000000000e-09 1.278000000000e-09 1.278000000000e-09 1.278000000000e-09 1.278000000000e-09 1.278000000000e-09 1.278000000000e-09 1.278000000000e-09 1.278000000000e-09 1.278000000000e-09 1.278000000000e-09 1.278000000000e-09 1.278000000000e-09 1.278000000000e-09 1.278000000000e-09 1.278000000000e-09 1.278000000000e-09 1.278000000000e-09 1.278000000000e-09 1.278000000000e-09 1.278000000000e-09 1.278000000000e-09 1.278000000000e-09 1.278000000000e-09 1.278000000000e-09 1.278000000000e-09 1.278000000000e-09 1.278000000000e-09 1.278000000000e-09 1.278000000000e-09 1.278000000000e-09 1.278000000000e-09 1.278000000000e-09 1.278000000000e-09 1.278000000000e-09 1.278000000000e-09 1.278000000000e-09 1.278000000000e-09 1.278000000000e-09 1.278000000000e-09 1.278000000000e-09 1.278000000000e-09 1.278000000000e-09 1.278000000000e-09 1.278000000000e-09 1.278000000000e-09 1.278000000000e-09 1.278000000000e-09 1.278000000000e-09 1.278000000000e-09 1.278000000000e-09 1.278000000000e-09 1.278000000000e-09 1.278000000000e-09 1.278000000000e-09 1.278000000000e-09 1.278000000000e-09 1.278000000000e-09 
        </DataArray>
      </CellData>
    </Piece>
  </UnstructuredGrid>
</VTKFile>
