<?xml version="1.0"?>
<!-- Time step: 5 | Time: 5.000000000000e+01 -->
<VTKFile type="UnstructuredGrid" version="0.1" byte_order="LittleEndian">
  <UnstructuredGrid>
    <Piece NumberOfPoints="121" NumberOfCells="100">
      <Points>
        <DataArray type="Float64" NumberOfComponents="3" format="ascii">
          0.000000000000e+00 0.000000000000e+00 0.000000000000e+00
          1.000000000000e-01 0.000000000000e+00 0.000000000000e+00
          2.000000000000e-01 0.000000000000e+00 0.000000000000e+00
          3.000000000000e-01 0.000000000000e+00 0.000000000000e+00
          4.000000000000e-01 0.000000000000e+00 0.000000000000e+00
          5.000000000000e-01 0.000000000000e+00 0.000000000000e+00
          6.000000000000e-01 0.000000000000e+00 0.000000000000e+00
          7.000000000000e-01 0.000000000000e+00 0.000000000000e+00
          8.000000000000e-01 0.000000000000e+00 0.000000000000e+00
          9.000000000000e-01 0.000000000000e+00 0.000000000000e+00
          1.000000000000e+00 0.000000000000e+00 0.000000000000e+00
          0.000000000000e+00 1.000000000000e-01 0.000000000000e+00
          1.000000000000e-01 1.000000000000e-01 0.000000000000e+00
          2.000000000000e-01 1.000000000000e-01 0.000000000000e+00
          3.000000000000e-01 1.000000000000e-01 0.000000000000e+00
          4.000000000000e-01 1.000000000000e-01 0.000000000000e+00
          5.000000000000e-01 1.000000000000e-01 0.000000000000e+00
          6.000000000000e-01 1.000000000000e-01 0.000000000000e+00
          7.000000000000e-01 1.000000000000e-01 0.000000000000e+00
          8.000000000000e-01 1.000000000000e-01 0.000000000000e+00
          9.000000000000e-01 1.000000000000e-01 0.000000000000e+00
          1.000000000000e+00 1.000000000000e-01 0.000000000000e+00
          0.000000000000e+00 2.000000000000e-01 0.000000000000e+00
          1.000000000000e-01 2.000000000000e-01 0.000000000000e+00
          2.000000000000e-01 2.000000000000e-01 0.000000000000e+00
          3.000000000000e-01 2.000000000000e-01 0.000000000000e+00
          4.000000000000e-01 2.000000000000e-01 0.000000000000e+00
          5.000000000000e-01 2.000000000000e-01 0.000000000000e+00
          6.000000000000e-01 2.000000000000e-01 0.000000000000e+00
          7.000000000000e-01 2.000000000000e-01 0.000000000000e+00
          8.000000000000e-01 2.000000000000e-01 0.000000000000e+00
          9.000000000000e-01 2.000000000000e-01 0.000000000000e+00
          1.000000000000e+00 2.000000000000e-01 0.000000000000e+00
          0.000000000000e+00 3.000000000000e-01 0.000000000000e+00
          1.000000000000e-01 3.000000000000e-01 0.000000000000e+00
          2.000000000000e-01 3.000000000000e-01 0.000000000000e+00
          3.000000000000e-01 3.000000000000e-01 0.000000000000e+00
          4.000000000000e-01 3.000000000000e-01 0.000000000000e+00
          5.000000000000e-01 3.000000000000e-01 0.000000000000e+00
          6.000000000000e-01 3.000000000000e-01 0.000000000000e+00
          7.000000000000e-01 3.000000000000e-01 0.000000000000e+00
          8.000000000000e-01 3.000000000000e-01 0.000000000000e+00
          9.000000000000e-01 3.000000000000e-01 0.000000000000e+00
          1.000000000000e+00 3.000000000000e-01 0.000000000000e+00
          0.000000000000e+00 4.000000000000e-01 0.000000000000e+00
          1.000000000000e-01 4.000000000000e-01 0.000000000000e+00
          2.000000000000e-01 4.000000000000e-01 0.000000000000e+00
          3.000000000000e-01 4.000000000000e-01 0.000000000000e+00
          4.000000000000e-01 4.000000000000e-01 0.000000000000e+00
          5.000000000000e-01 4.000000000000e-01 0.000000000000e+00
          6.000000000000e-01 4.000000000000e-01 0.000000000000e+00
          7.000000000000e-01 4.000000000000e-01 0.000000000000e+00
          8.000000000000e-01 4.000000000000e-01 0.000000000000e+00
          9.000000000000e-01 4.000000000000e-01 0.000000000000e+00
          1.000000000000e+00 4.000000000000e-01 0.000000000000e+00
          0.000000000000e+00 5.000000000000e-01 0.000000000000e+00
          1.000000000000e-01 5.000000000000e-01 0.000000000000e+00
          2.000000000000e-01 5.000000000000e-01 0.000000000000e+00
          3.000000000000e-01 5.000000000000e-01 0.000000000000e+00
          4.000000000000e-01 5.000000000000e-01 0.000000000000e+00
          5.000000000000e-01 5.000000000000e-01 0.000000000000e+00
          6.000000000000e-01 5.000000000000e-01 0.000000000000e+00
          7.000000000000e-01 5.000000000000e-01 0.000000000000e+00
          8.000000000000e-01 5.000000000000e-01 0.000000000000e+00
          9.000000000000e-01 5.000000000000e-01 0.000000000000e+00
          1.000000000000e+00 5.000000000000e-01 0.000000000000e+00
          0.000000000000e+00 6.000000000000e-01 0.000000000000e+00
          1.000000000000e-01 6.000000000000e-01 0.000000000000e+00
          2.000000000000e-01 6.000000000000e-01 0.000000000000e+00
          3.000000000000e-01 6.000000000000e-01 0.000000000000e+00
          4.000000000000e-01 6.000000000000e-01 0.000000000000e+00
          5.000000000000e-01 6.000000000000e-01 0.000000000000e+00
          6.000000000000e-01 6.000000000000e-01 0.000000000000e+00
          7.000000000000e-01 6.000000000000e-01 0.000000000000e+00
          8.000000000000e-01 6.000000000000e-01 0.000000000000e+00
          9.000000000000e-01 6.000000000000e-01 0.000000000000e+00
          1.000000000000e+00 6.000000000000e-01 0.000000000000e+00
          0.000000000000e+00 7.000000000000e-01 0.000000000000e+00
          1.000000000000e-01 7.000000000000e-01 0.000000000000e+00
          2.000000000000e-01 7.000000000000e-01 0.000000000000e+00
          3.000000000000e-01 7.000000000000e-01 0.000000000000e+00
          4.000000000000e-01 7.000000000000e-01 0.000000000000e+00
          5.000000000000e-01 7.000000000000e-01 0.000000000000e+00
          6.000000000000e-01 7.000000000000e-01 0.000000000000e+00
          7.000000000000e-01 7.000000000000e-01 0.000000000000e+00
          8.000000000000e-01 7.000000000000e-01 0.000000000000e+00
          9.000000000000e-01 7.000000000000e-01 0.000000000000e+00
          1.000000000000e+00 7.000000000000e-01 0.000000000000e+00
          0.000000000000e+00 8.000000000000e-01 0.000000000000e+00
          1.000000000000e-01 8.000000000000e-01 0.000000000000e+00
          2.000000000000e-01 8.000000000000e-01 0.000000000000e+00
          3.000000000000e-01 8.000000000000e-01 0.000000000000e+00
          4.000000000000e-01 8.000000000000e-01 0.000000000000e+00
          5.000000000000e-01 8.000000000000e-01 0.000000000000e+00
          6.000000000000e-01 8.000000000000e-01 0.000000000000e+00
          7.000000000000e-01 8.000000000000e-01 0.000000000000e+00
          8.000000000000e-01 8.000000000000e-01 0.000000000000e+00
          9.000000000000e-01 8.000000000000e-01 0.000000000000e+00
          1.000000000000e+00 8.000000000000e-01 0.000000000000e+00
          0.000000000000e+00 9.000000000000e-01 0.000000000000e+00
          1.000000000000e-01 9.000000000000e-01 0.000000000000e+00
          2.000000000000e-01 9.000000000000e-01 0.000000000000e+00
          3.000000000000e-01 9.000000000000e-01 0.000000000000e+00
          4.000000000000e-01 9.000000000000e-01 0.000000000000e+00
          5.000000000000e-01 9.000000000000e-01 0.000000000000e+00
          6.000000000000e-01 9.000000000000e-01 0.000000000000e+00
          7.000000000000e-01 9.000000000000e-01 0.000000000000e+00
          8.000000000000e-01 9.000000000000e-01 0.000000000000e+00
          9.000000000000e-01 9.000000000000e-01 0.000000000000e+00
          1.000000000000e+00 9.000000000000e-01 0.000000000000e+00
          0.000000000000e+00 1.000000000000e+00 0.000000000000e+00
          1.000000000000e-01 1.000000000000e+00 0.000000000000e+00
          2.000000000000e-01 1.000000000000e+00 0.000000000000e+00
          3.000000000000e-01 1.000000000000e+00 0.000000000000e+00
          4.000000000000e-01 1.000000000000e+00 0.000000000000e+00
          5.000000000000e-01 1.000000000000e+00 0.000000000000e+00
          6.000000000000e-01 1.000000000000e+00 0.000000000000e+00
          7.000000000000e-01 1.000000000000e+00 0.000000000000e+00
          8.000000000000e-01 1.000000000000e+00 0.000000000000e+00
          9.000000000000e-01 1.000000000000e+00 0.000000000000e+00
          1.000000000000e+00 1.000000000000e+00 0.000000000000e+00
        </DataArray>
      </Points>
      <Cells>
        <DataArray type="Int64" Name="connectivity" format="ascii">
          0 1 12 11 
          1 2 13 12 
          2 3 14 13 
          3 4 15 14 
          4 5 16 15 
          5 6 17 16 
          6 7 18 17 
          7 8 19 18 
          8 9 20 19 
          9 10 21 20 
          11 12 23 22 
          12 13 24 23 
          13 14 25 24 
          14 15 26 25 
          15 16 27 26 
          16 17 28 27 
          17 18 29 28 
          18 19 30 29 
          19 20 31 30 
          20 21 32 31 
          22 23 34 33 
          23 24 35 34 
          24 25 36 35 
          25 26 37 36 
          26 27 38 37 
          27 28 39 38 
          28 29 40 39 
          29 30 41 40 
          30 31 42 41 
          31 32 43 42 
          33 34 45 44 
          34 35 46 45 
          35 36 47 46 
          36 37 48 47 
          37 38 49 48 
          38 39 50 49 
          39 40 51 50 
          40 41 52 51 
          41 42 53 52 
          42 43 54 53 
          44 45 56 55 
          45 46 57 56 
          46 47 58 57 
          47 48 59 58 
          48 49 60 59 
          49 50 61 60 
          50 51 62 61 
          51 52 63 62 
          52 53 64 63 
          53 54 65 64 
          55 56 67 66 
          56 57 68 67 
          57 58 69 68 
          58 59 70 69 
          59 60 71 70 
          60 61 72 71 
          61 62 73 72 
          62 63 74 73 
          63 64 75 74 
          64 65 76 75 
          66 67 78 77 
          67 68 79 78 
          68 69 80 79 
          69 70 81 80 
          70 71 82 81 
          71 72 83 82 
          72 73 84 83 
          73 74 85 84 
          74 75 86 85 
          75 76 87 86 
          77 78 89 88 
          78 79 90 89 
          79 80 91 90 
          80 81 92 91 
          81 82 93 92 
          82 83 94 93 
          83 84 95 94 
          84 85 96 95 
          85 86 97 96 
          86 87 98 97 
          88 89 100 99 
          89 90 101 100 
          90 91 102 101 
          91 92 103 102 
          92 93 104 103 
          93 94 105 104 
          94 95 106 105 
          95 96 107 106 
          96 97 108 107 
          97 98 109 108 
          99 100 111 110 
          100 101 112 111 
          101 102 113 112 
          102 103 114 113 
          103 104 115 114 
          104 105 116 115 
          105 106 117 116 
          106 107 118 117 
          107 108 119 118 
          108 109 120 119 
        </DataArray>
        <DataArray type="Int64" Name="offsets" format="ascii">
          4 8 12 16 20 24 28 32 36 40 44 48 52 56 60 64 68 72 76 80 84 88 92 96 100 104 108 112 116 120 124 128 132 136 140 144 148 152 156 160 164 168 172 176 180 184 188 192 196 200 204 208 212 216 220 224 228 232 236 240 244 248 252 256 260 264 268 272 276 280 284 288 292 296 300 304 308 312 316 320 324 328 332 336 340 344 348 352 356 360 364 368 372 376 380 384 388 392 396 400 
        </DataArray>
        <DataArray type="UInt8" Name="types" format="ascii">
          9 9 9 9 9 9 9 9 9 9 9 9 9 9 9 9 9 9 9 9 9 9 9 9 9 9 9 9 9 9 9 9 9 9 9 9 9 9 9 9 9 9 9 9 9 9 9 9 9 9 9 9 9 9 9 9 9 9 9 9 9 9 9 9 9 9 9 9 9 9 9 9 9 9 9 9 9 9 9 9 9 9 9 9 9 9 9 9 9 9 9 9 9 9 9 9 9 9 9 9 
        </DataArray>
      </Cells>
      <PointData Scalars="PRESSURE1">
        <DataArray type="Float64" Name="PRESSURE1" format="ascii">
          1.254560208717e-03 1.137639363701e-03 1.014091644476e-03 8.888225881054e-04 7.627150609322e-04 6.361109299262e-04 5.091858449483e-04 3.820471259807e-04 2.547682712582e-04 1.274042787582e-04 0.000000000000e+00 1.264926791963e-03 1.139594029510e-03 1.014908631511e-03 8.892668028746e-04 7.629908860482e-04 6.362931299701e-04 5.093084314718e-04 3.821279735055e-04 2.548175213795e-04 1.274276121935e-04 0.000000000000e+00 1.269776695958e-03 1.142917661858e-03 1.016648118169e-03 8.903104358604e-04 7.636691206038e-04 6.367513845381e-04 5.096203099528e-04 3.823348686412e-04 2.549439258510e-04 1.274875802090e-04 0.000000000000e+00 1.273087266386e-03 1.145705003837e-03 1.018660902957e-03 8.916909208955e-04 7.646269643948e-04 6.374204112500e-04 5.100834557614e-04 3.826447968284e-04 2.551341051968e-04 1.275779848393e-04 0.000000000000e+00 1.275776329796e-03 1.148138284370e-03 1.020644889246e-03 8.932030692164e-04 7.657398829035e-04 6.382225492985e-04 5.106478986424e-04 3.830256855395e-04 2.553688073349e-04 1.276897688339e-04 0.000000000000e+00 1.278233387135e-03 1.150417522958e-03 1.022586949142e-03 8.947503205134e-04 7.669149821464e-04 6.390847333219e-04 5.112603293798e-04 3.834409570443e-04 2.556253137779e-04 1.278120731595e-04 0.000000000000e+00 1.280712848719e-03 1.152712453826e-03 1.024534416114e-03 8.962950490905e-04 7.680841105390e-04 6.399407031198e-04 5.118676455817e-04 3.838525152629e-04 2.558794507920e-04 1.279332311166e-04 0.000000000000e+00 1.283480181728e-03 1.155196492800e-03 1.026530535919e-03 8.977940715098e-04 7.691760017309e-04 6.407231994684e-04 5.124166105152e-04 3.842223863904e-04 2.561071875946e-04 1.280416590723e-04 0.000000000000e+00 1.286973404898e-03 1.158078755791e-03 1.028539191548e-03 8.991307477605e-04 7.700904885372e-04 6.413573672837e-04 5.128540144910e-04 3.845145409699e-04 2.562862930554e-04 1.281267629588e-04 0.000000000000e+00 1.292292283462e-03 1.161519461225e-03 1.030153522828e-03 9.000774379325e-04 7.706986057689e-04 6.417659878638e-04 5.131313436596e-04 3.846982587535e-04 2.563984586018e-04 1.281799587089e-04 0.000000000000e+00 1.304614354962e-03 1.162643294318e-03 1.030712692860e-03 9.003772515758e-04 7.708849449965e-04 6.418890698573e-04 5.132141550620e-04 3.847528740208e-04 2.564317287430e-04 1.281957212424e-04 0.000000000000e+00 
        </DataArray>
        <DataArray type="Float64" Name="TEMPERATURE1" format="ascii">
          5.231500000000e+02 4.708349999751e+02 4.185199999526e+02 3.662049999348e+02 3.138899999233e+02 2.615749999194e+02 2.092599999234e+02 1.569449999348e+02 1.046299999527e+02 5.231499997512e+01 0.000000000000e+00 5.231500000000e+02 4.708349999751e+02 4.185199999526e+02 3.662049999348e+02 3.138899999233e+02 2.615749999194e+02 2.092599999234e+02 1.569449999348e+02 1.046299999527e+02 5.231499997512e+01 0.000000000000e+00 5.231500000000e+02 4.708349999751e+02 4.185199999526e+02 3.662049999348e+02 3.138899999233e+02 2.615749999194e+02 2.092599999234e+02 1.569449999348e+02 1.046299999527e+02 5.231499997512e+01 0.000000000000e+00 5.231500000000e+02 4.708349999751e+02 4.185199999526e+02 3.662049999348e+02 3.138899999233e+02 2.615749999194e+02 2.092599999234e+02 1.569449999348e+02 1.046299999527e+02 5.231499997512e+01 0.000000000000e+00 5.231500000000e+02 4.708349999751e+02 4.185199999526e+02 3.662049999348e+02 3.138899999233e+02 2.615749999194e+02 2.092599999234e+02 1.569449999348e+02 1.046299999527e+02 5.231499997512e+01 0.000000000000e+00 5.231500000000e+02 4.708349999751e+02 4.185199999526e+02 3.662049999348e+02 3.138899999233e+02 2.615749999194e+02 2.092599999234e+02 1.569449999348e+02 1.046299999527e+02 5.231499997512e+01 0.000000000000e+00 5.231500000000e+02 4.708349999751e+02 4.185199999526e+02 3.662049999348e+02 3.138899999233e+02 2.615749999194e+02 2.092599999234e+02 1.569449999348e+02 1.046299999527e+02 5.231499997512e+01 0.000000000000e+00 5.231500000000e+02 4.708349999751e+02 4.185199999526e+02 3.662049999348e+02 3.138899999233e+02 2.615749999194e+02 2.092599999234e+02 1.569449999348e+02 1.046299999527e+02 5.231499997512e+01 0.000000000000e+00 5.231500000000e+02 4.708349999751e+02 4.185199999526e+02 3.662049999348e+02 3.138899999233e+02 2.615749999194e+02 2.092599999234e+02 1.569449999348e+02 1.046299999527e+02 5.231499997512e+01 0.000000000000e+00 5.231500000000e+02 4.708349999751e+02 4.185199999526e+02 3.662049999348e+02 3.138899999233e+02 2.615749999194e+02 2.092599999234e+02 1.569449999348e+02 1.046299999527e+02 5.231499997512e+01 0.000000000000e+00 5.231500000000e+02 4.708349999751e+02 4.185199999526e+02 3.662049999348e+02 3.138899999233e+02 2.615749999194e+02 2.092599999234e+02 1.569449999348e+02 1.046299999527e+02 5.231499997512e+01 0.000000000000e+00 
        </DataArray>
        <DataArray type="Float64" Name="STRESS_XX" format="ascii">
          -2.913325245228e-02 -2.858101908939e-02 -2.675585187617e-02 -2.383204521406e-02 -2.007392627849e-02 -1.579670843768e-02 -1.134066791489e-02 -7.064385798998e-03 -3.361053022965e-03 -6.936236070356e-04 2.665822204264e-04 -2.869134081908e-02 -2.814465999263e-02 -2.632203428589e-02 -2.341162343357e-02 -1.968601547366e-02 -1.546483587957e-02 -1.108613046831e-02 -6.899080536670e-03 -3.281282701975e-03 -6.766903637150e-04 2.606575852944e-04 -2.731784109945e-02 -2.677162531144e-02 -2.495700706578e-02 -2.208835457651e-02 -1.846535412514e-02 -1.442059736174e-02 -1.028447931604e-02 -6.377078717982e-03 -3.028305744441e-03 -6.230178180298e-04 2.417472244404e-04 -2.481250411628e-02 -2.426318263245e-02 -2.246037911143e-02 -1.966916120801e-02 -1.623721805499e-02 -1.251678415840e-02 -8.821151844602e-03 -5.418811113820e-03 -2.558219774133e-03 -5.206926584880e-04 2.065528273325e-04 -2.082199338499e-02 -2.026511116315e-02 -1.848079901629e-02 -1.582382701778e-02 -1.271434849516e-02 -9.521859638400e-03 -6.522095496145e-03 -3.904734924871e-03 -1.804019321913e-03 -3.511087074328e-04 1.499420889408e-04 -1.479618946351e-02 -1.422588380128e-02 -1.248133293869e-02 -1.007239046853e-02 -7.511237957186e-03 -5.153470952099e-03 -3.192056592338e-03 -1.704849913624e-03 -6.896786621133e-04 -9.088251120169e-05 6.605408877069e-05 -5.896319957851e-03 -5.306966756198e-03 -3.673075093091e-03 -1.772611547698e-03 -1.874479156419e-04 8.455454073468e-04 1.304243361625e-03 1.257828764658e-03 8.376389989768e-04 2.826987214840e-04 -4.924646937763e-05 7.205568863282e-03 7.812256918097e-03 9.104031601675e-03 9.862689262158e-03 9.637046499307e-03 8.556423037701e-03 6.892379107872e-03 4.883012978085e-03 2.735759928428e-03 7.777191346356e-04 -1.922882971327e-04 2.681387190704e-02 2.739504689456e-02 2.753836436903e-02 2.558477357885e-02 2.201074353854e-02 1.763667962988e-02 1.306041793923e-02 8.671030487544e-03 4.695909772061e-03 1.341618790345e-03 -3.335241755468e-04 5.753431540632e-02 5.800028078820e-02 5.351761735174e-02 4.535187770521e-02 3.615952896928e-02 2.703427103616e-02 1.862010695092e-02 1.138811721664e-02 5.695375799979e-03 1.634128144211e-03 -3.485939900547e-04 1.219422656448e-01 1.053494794412e-01 8.510436767155e-02 6.676934526464e-02 4.999352164147e-02 3.488548629811e-02 2.167835353509e-02 1.080007446257e-02 2.990546118129e-03 -5.519730813148e-04 -2.297803435225e-04 
        </DataArray>
        <DataArray type="Float64" Name="STRESS_XY" format="ascii">
          8.545055471366e-08 -1.134142635494e-06 -2.709428348056e-06 -4.297106804184e-06 -5.930935666684e-06 -7.451236251592e-06 -8.678967287820e-06 -9.456964779330e-06 -9.726206192337e-06 -1.092770500361e-05 2.454523665728e-05 -3.555579408557e-06 -1.324252638235e-03 -2.523972718995e-03 -3.495006562193e-03 -4.170053372070e-03 -4.514645820948e-03 -4.511772463915e-03 -4.139604388748e-03 -3.348399179679e-03 -2.042732776042e-03 -7.043932040094e-05 -7.827251716847e-06 -2.649394601156e-03 -5.034967465067e-03 -6.945441691629e-03 -8.250341012723e-03 -8.892133007598e-03 -8.850993582534e-03 -8.096874726963e-03 -6.540571871282e-03 -3.993959568630e-03 -1.404230561208e-04 -1.288065006707e-05 -3.975042295444e-03 -7.518068215240e-03 -1.029908077253e-02 -1.213659507562e-02 -1.297562249978e-02 -1.282240221890e-02 -1.166522862500e-02 -9.396654383663e-03 -5.744840278293e-03 -2.085623145266e-04 -1.969142820578e-05 -5.303900814491e-03 -9.952674155643e-03 -1.348267349026e-02 -1.568914882485e-02 -1.656514039656e-02 -1.618558732726e-02 -1.459279598049e-02 -1.169281995034e-02 -7.152365030271e-03 -2.707142761892e-04 -2.993552333624e-05 -6.639231882030e-03 -1.229885439112e-02 -1.637164882565e-02 -1.869526743938e-02 -1.938510203566e-02 -1.863388927285e-02 -1.657024939221e-02 -1.315087760847e-02 -8.027930840972e-03 -3.182500169461e-04 -4.732603676371e-05 -7.978810696595e-03 -1.445838346704e-02 -1.871976217821e-02 -2.079712971434e-02 -2.103612268257e-02 -1.977770519243e-02 -1.723774622144e-02 -1.345017673548e-02 -8.137472695723e-03 -3.351163423249e-04 -8.160774640741e-05 -9.295280483233e-03 -1.616591591285e-02 -1.999985617038e-02 -2.136275441642e-02 -2.092825465612e-02 -1.913782986581e-02 -1.622517707467e-02 -1.228455558578e-02 -7.228983572957e-03 -2.922791456683e-04 -1.653999855015e-04 -1.046317830862e-02 -1.665890578391e-02 -1.907038910112e-02 -1.930524002212e-02 -1.821532171382e-02 -1.615192462891e-02 -1.322788464515e-02 -9.498889837545e-03 -5.131645434101e-03 -1.342089746559e-04 -5.215106456854e-04 -1.090875794078e-02 -1.354933649117e-02 -1.370449205880e-02 -1.299652772763e-02 -1.180127531753e-02 -1.017619902563e-02 -8.045472883169e-03 -5.301743978697e-03 -2.090600396571e-03 2.464024829530e-04 -2.229258533699e-03 -2.309820030140e-03 -1.185595194404e-03 -8.071460279053e-04 -6.148662539504e-04 -4.937502103637e-04 -3.982712422556e-04 -2.912372065297e-04 -1.136739376200e-04 2.548309733936e-04 3.149266686746e-04 
        </DataArray>
        <DataArray type="Float64" Name="STRESS_YY" format="ascii">
          -6.707796556031e-02 -4.691054388899e-02 -3.013448493168e-02 -1.638923214692e-02 -5.124022071275e-03 4.351674784163e-03 1.282720342697e-02 2.117383074984e-02 3.035872089485e-02 4.148817025104e-02 5.587454576993e-02 -6.639647410569e-02 -4.626669628039e-02 -2.958181842255e-02 -1.596953280881e-02 -4.862389669296e-03 4.442921095743e-03 1.273905091852e-02 2.088905262383e-02 2.984141885628e-02 4.067783920669e-02 5.468906459311e-02 -6.437616532142e-02 -4.434564527685e-02 -2.793907089834e-02 -1.473350755506e-02 -4.104734206664e-03 4.691734491969e-03 1.245910934237e-02 2.003485592474e-02 2.830875295304e-02 3.828309982316e-02 5.117590102791e-02 -6.100993527566e-02 -4.115669709103e-02 -2.524161718444e-02 -1.274267531509e-02 -2.925338168215e-03 5.031586057162e-03 1.194999885249e-02 1.862156417797e-02 2.583029628177e-02 3.442914591676e-02 4.548412110614e-02 -5.628907010044e-02 -3.671354967716e-02 -2.155544978605e-02 -1.011140257368e-02 -1.458148794304e-03 5.345779275564e-03 1.114667550690e-02 1.666554180788e-02 2.252617188694e-02 2.934174525159e-02 3.790048053936e-02 -5.019561496693e-02 -3.104058760079e-02 -1.699640046770e-02 -7.029006125631e-03 9.035878323782e-05 5.465825828270e-03 9.959574768108e-03 1.419117994160e-02 1.857105623840e-02 2.336824351135e-02 2.890609462331e-02 -4.269702408510e-02 -2.418781542757e-02 -1.177401834479e-02 -3.798623297178e-03 1.432317421459e-03 5.187978207496e-03 8.296950149719e-03 1.124229366577e-02 1.419506959376e-02 1.699497326571e-02 1.925006262290e-02 -3.373851601624e-02 -1.627778468790e-02 -6.294544656533e-03 -8.955177280190e-04 2.218005038790e-03 4.335928016530e-03 6.129552003329e-03 7.917002420893e-03 9.676754021452e-03 1.083962260283e-02 1.002921546966e-02 -2.321603651525e-02 -7.656932467289e-03 -1.408180031299e-03 1.001433144756e-03 2.150602659910e-03 2.905214102503e-03 3.621604845004e-03 4.455125457830e-03 5.335289652810e-03 5.569956184324e-03 2.750976724161e-03 -1.046487651288e-02 2.208207277253e-04 1.182376825949e-03 1.311794336571e-03 1.299207675055e-03 1.280107386787e-03 1.308799771926e-03 1.421569119987e-03 1.617327416487e-03 1.640259796622e-03 -6.673617595250e-04 2.592960309525e-03 2.110938023193e-03 1.203662062136e-03 8.718734357270e-04 6.536708532022e-04 4.634586394944e-04 2.732496269229e-04 7.206569758571e-05 -1.284169567698e-04 -2.272355971954e-04 -2.306113045367e-04 
        </DataArray>
        <DataArray type="Float64" Name="STRESS_ZZ" format="ascii">
          -1.826694654038e-01 -1.610729588862e-01 -1.401119810284e-01 -1.197306531891e-01 -9.984304448239e-02 -8.033656007236e-02 -6.107647932385e-02 -4.190899649559e-02 -2.266191962452e-02 -3.142245999483e-03 1.684233839711e-02 -1.823324444774e-01 -1.607488968746e-01 -1.398160357986e-01 -1.194786168535e-01 -9.964818152035e-02 -8.020962441146e-02 -6.102656384241e-02 -4.194483835470e-02 -2.279317913979e-02 -3.380265339794e-03 1.648491665352e-02 -1.813143019263e-01 -1.597606711692e-01 -1.389137033753e-01 -1.187108286203e-01 -9.905468647700e-02 -7.982170883724e-02 -6.087005096958e-02 -4.204449681882e-02 -2.317708582351e-02 -4.082585391147e-03 1.542529447571e-02 -1.795528318176e-01 -1.580514539097e-01 -1.373554788748e-01 -1.173878209378e-01 -9.803242684442e-02 -7.914860940668e-02 -6.058378587511e-02 -4.218100406160e-02 -2.377959703379e-02 -5.208074015203e-03 1.370720218004e-02 -1.769394190456e-01 -1.555190882448e-01 -1.350557546268e-01 -1.154448388583e-01 -9.653540916430e-02 -7.815587408516e-02 -6.013506597425e-02 -4.231358791594e-02 -2.454457421658e-02 -6.683419029438e-03 1.141512678849e-02 -1.733036413291e-01 -1.520054314133e-01 -1.318882000080e-01 -1.127946889591e-01 -9.450992372965e-02 -7.680934351346e-02 -5.949218452474e-02 -4.239593097245e-02 -2.539680671320e-02 -8.397401692640e-03 8.691644613623e-03 -1.683841032129e-01 -1.472739246478e-01 -1.276790080174e-01 -1.093356404343e-01 -9.191019912572e-02 -7.509299289186e-02 -5.864208192407e-02 -4.239179325172e-02 -2.625140740826e-02 -1.019730839653e-02 5.760244846058e-03 -1.617659841459e-01 -1.409651483236e-01 -1.222020339025e-01 -1.049741185206e-01 -8.872714451603e-02 -7.303534466004e-02 -5.761586064411e-02 -4.230182536115e-02 -2.703746580112e-02 -1.189540747145e-02 2.951078151758e-03 -1.527267493825e-01 -1.325040556645e-01 -1.152058246847e-01 -9.968840796374e-02 -8.503525611793e-02 -7.074048185659e-02 -5.651783314221e-02 -4.220398319723e-02 -2.775186015862e-02 -1.330713750028e-02 7.252357645843e-04 -1.396852683320e-01 -1.209591595379e-01 -1.066348817328e-01 -9.366516836829e-02 -8.104603898416e-02 -6.840873644943e-02 -5.554376796062e-02 -4.229892407986e-02 -2.856740902115e-02 -1.439829361044e-02 -3.047867248739e-04 -1.164455322137e-01 -1.061873647534e-01 -9.715247106596e-02 -8.737190437071e-02 -7.708950222906e-02 -6.629836649503e-02 -5.493695902887e-02 -4.288018793280e-02 -2.990258123768e-02 -1.561437259624e-02 -1.381174944178e-04 
        </DataArray>
        <DataArray type="Float64" Name="STRAIN_XX" format="ascii">
          9.504622706521e-03 8.201881987421e-03 7.017284185615e-03 5.936580493694e-03 4.938088269765e-03 3.995324148814e-03 3.078883563412e-03 2.157047328837e-03 1.194815551525e-03 1.515813861991e-04 -1.026118239509e-03 9.511115940755e-03 8.208833711739e-03 7.025819141263e-03 5.947004354569e-03 4.950038850509e-03 4.008010718641e-03 3.091550637444e-03 2.169499293497e-03 1.207879303294e-03 1.673641651859e-04 -1.004358894700e-03 9.533114241660e-03 8.232655219763e-03 7.054462152494e-03 5.981391250329e-03 4.988863431306e-03 4.048640234198e-03 3.131487769028e-03 2.207983025290e-03 1.247305433466e-03 2.141637069072e-04 -9.399338774592e-04 9.579163143414e-03 8.282131079069e-03 7.112553794877e-03 6.049250364222e-03 5.063512925060e-03 4.124827277275e-03 3.204353535222e-03 2.275754801529e-03 1.313704306550e-03 2.901712268442e-04 -8.357544837391e-04 9.664412064706e-03 8.372865247909e-03 7.216544871125e-03 6.167015018697e-03 5.188922803328e-03 4.248772322895e-03 3.318898172454e-03 2.377690899447e-03 1.407748636336e-03 3.920001627908e-04 -6.973685766388e-04 9.812366067872e-03 8.529210090268e-03 7.391853675718e-03 6.358999430367e-03 5.385632928771e-03 4.435839729989e-03 3.485246014863e-03 2.518971684594e-03 1.529488879353e-03 5.142130921843e-04 -5.339651277289e-04 1.005876753484e-02 8.788430726623e-03 7.676557752459e-03 6.658663692979e-03 5.678075074909e-03 4.700957132808e-03 3.710962993876e-03 2.702119458157e-03 1.676940968067e-03 6.487623454008e-04 -3.596351766698e-04 1.046014375771e-02 9.210029848296e-03 8.128470721688e-03 7.108945243693e-03 6.089211824759e-03 5.050918952717e-03 3.993367222742e-03 2.920966182905e-03 1.843104449924e-03 7.845268851385e-04 -1.945893515980e-04 1.111441941316e-02 9.898515872703e-03 8.836545036662e-03 7.755006476446e-03 6.626657121591e-03 5.470967139639e-03 4.307225066946e-03 3.149405609058e-03 2.008671471900e-03 9.068277703723e-04 -6.554228200812e-05 1.220883137427e-02 1.107844154400e-02 9.914202324279e-03 8.605817137883e-03 7.255582778070e-03 5.908376653869e-03 4.591097018333e-03 3.323483508831e-03 2.121029536546e-03 9.924832514781e-04 -2.711878320714e-06 1.475733986743e-02 1.309513797395e-02 1.128256620756e-02 9.542077358379e-03 7.867044334842e-03 6.263762315766e-03 4.742852682531e-03 3.323063862570e-03 2.036241217264e-03 9.324342556858e-04 -5.674366849342e-06 
        </DataArray>
        <DataArray type="Float64" Name="STRAIN_XY" format="ascii">
          1.057959248836e-08 -1.404176596326e-07 -3.354530335688e-07 -5.320227471847e-07 -7.343063206370e-07 -9.225340121019e-07 -1.074538807063e-06 -1.170862306012e-06 -1.204196957147e-06 -1.352953952827e-06 3.038934062330e-06 -4.402145934403e-07 -1.639550885434e-04 -3.124918604470e-04 -4.327150981763e-04 -5.162923222563e-04 -5.589561492603e-04 -5.586004002943e-04 -5.125224481307e-04 -4.145637079602e-04 -2.529097722718e-04 -8.721058716307e-06 -9.690883078001e-07 -3.280202839527e-04 -6.233769242464e-04 -8.599118284873e-04 -1.021470792051e-03 -1.100930753322e-03 -1.095837300695e-03 -1.002470204291e-03 -8.097850888254e-04 -4.944902323066e-04 -1.738571171019e-05 -1.594747151162e-06 -4.921480937217e-04 -9.308084456964e-04 -1.275124286123e-03 -1.502626056982e-03 -1.606505642830e-03 -1.587535512816e-03 -1.444266401191e-03 -1.163395304644e-03 -7.112659392172e-04 -2.582200084615e-05 -2.437986349287e-06 -6.566734341750e-04 -1.232235847842e-03 -1.669283384509e-03 -1.942466044982e-03 -2.050922144336e-03 -2.003929859565e-03 -1.806727121393e-03 -1.447682470042e-03 -8.855309085097e-04 -3.351700562342e-05 -3.706302889249e-06 -8.220001377752e-04 -1.522715305567e-03 -2.026966045081e-03 -2.314652159162e-03 -2.400060252034e-03 -2.307052957591e-03 -2.051554686654e-03 -1.628203894382e-03 -9.939342945966e-04 -3.940238305047e-05 -5.859414075508e-06 -9.878527529117e-04 -1.790085572109e-03 -2.317684841111e-03 -2.574882726537e-03 -2.604472332127e-03 -2.448668261920e-03 -2.134197151226e-03 -1.665259976773e-03 -1.007496619470e-03 -4.149059476404e-05 -1.010381622187e-05 -1.150844250305e-03 -2.001494351114e-03 -2.476172668714e-03 -2.644912451557e-03 -2.591117243138e-03 -2.369445602434e-03 -2.008831447341e-03 -1.520944977287e-03 -8.950170137947e-04 -3.618694184464e-05 -2.047809344304e-05 -1.295441123925e-03 -2.062531192294e-03 -2.361095793472e-03 -2.390172574167e-03 -2.255230307426e-03 -1.999762096913e-03 -1.637738098923e-03 -1.176053027506e-03 -6.353465775554e-04 -1.661634924311e-05 -6.456798470390e-05 -1.350608126002e-03 -1.677536898907e-03 -1.696746635852e-03 -1.609093909135e-03 -1.461110277409e-03 -1.259910355554e-03 -9.961061664876e-04 -6.564063973625e-04 -2.588362395755e-04 3.050697407990e-05 -2.760034375056e-04 -2.859777180174e-04 -1.467879764501e-04 -9.993236535971e-05 -7.612629810815e-05 -6.113097842599e-05 -4.930977285069e-05 -3.605793985606e-05 -1.407391608629e-05 3.155050146778e-05 3.899092088352e-05 
        </DataArray>
        <DataArray type="Float64" Name="STRAIN_YY" format="ascii">
          7.155664276024e-03 7.067197118874e-03 6.808130710751e-03 6.397326064517e-03 5.863558530212e-03 5.242605014928e-03 4.574989884575e-03 3.905127400908e-03 3.282230127389e-03 2.762835291699e-03 2.416279504032e-03 7.176988642060e-03 7.086993370117e-03 6.824022980422e-03 6.407705202769e-03 5.867691876494e-03 5.240395674255e-03 4.566442818534e-03 3.889717060575e-03 3.258332256900e-03 2.727406471925e-03 2.365018681975e-03 7.239027504109e-03 7.144739698095e-03 6.869858200955e-03 6.436691304038e-03 5.877854188164e-03 5.231784587046e-03 4.539424209787e-03 3.843007550792e-03 3.187218590929e-03 2.622637656124e-03 2.213132786565e-03 7.338369785928e-03 7.236342088776e-03 6.940381914167e-03 6.478032824260e-03 5.887581679956e-03 5.211154957285e-03 4.490186673613e-03 3.763968510068e-03 3.071088633821e-03 2.453732662455e-03 1.967142600187e-03 7.468831125178e-03 7.354628577995e-03 7.026209347283e-03 6.520641293807e-03 5.885735165762e-03 5.169149969950e-03 4.412679234547e-03 3.651088982903e-03 2.913903330218e-03 2.230129217397e-03 1.639569517911e-03 7.620973060517e-03 7.488299855060e-03 7.112349495351e-03 6.547399413499e-03 5.856207965083e-03 5.093224768774e-03 4.299394622891e-03 3.503011628013e-03 2.721820087480e-03 1.966444703104e-03 1.251370714885e-03 7.780628707911e-03 7.619616285062e-03 7.175070789259e-03 6.533243918011e-03 5.778346262444e-03 4.969774401388e-03 4.143844842663e-03 3.320205380606e-03 2.503829528697e-03 1.683331721948e-03 8.350839576143e-04 7.925509931835e-03 7.718741558401e-03 7.175225524752e-03 6.442961001444e-03 5.629937829584e-03 4.789650213311e-03 3.946144592461e-03 3.108784576984e-03 2.272785036635e-03 1.407406623645e-03 4.381704053938e-04 8.017329844161e-03 7.728631436017e-03 7.044616097594e-03 6.233180640050e-03 5.397219829104e-03 4.559019273658e-03 3.722917589684e-03 2.888421011980e-03 2.048252131184e-03 1.168581990000e-03 1.254030117833e-04 7.999357588801e-03 7.501617825967e-03 6.674401720301e-03 5.879526262682e-03 5.097562888428e-03 4.314071285099e-03 3.519444669158e-03 2.706506721895e-03 1.868578922330e-03 9.928628299607e-04 -2.244512119269e-05 7.369049537153e-03 6.704180648072e-03 6.088713003168e-03 5.462710054684e-03 4.812672619378e-03 4.132874889280e-03 3.417774821549e-03 2.658949034262e-03 1.843162550723e-03 9.525370523217e-04 -5.725807293077e-06 
        </DataArray>
        <DataArray type="Float64" Name="STRAIN_ZZ" format="ascii">
          0.000000000000e+00 0.000000000000e+00 0.000000000000e+00 0.000000000000e+00 0.000000000000e+00 0.000000000000e+00 0.000000000000e+00 0.000000000000e+00 0.000000000000e+00 0.000000000000e+00 0.000000000000e+00 0.000000000000e+00 0.000000000000e+00 0.000000000000e+00 0.000000000000e+00 0.000000000000e+00 0.000000000000e+00 0.000000000000e+00 0.000000000000e+00 0.000000000000e+00 0.000000000000e+00 0.000000000000e+00 0.000000000000e+00 0.000000000000e+00 0.000000000000e+00 0.000000000000e+00 0.000000000000e+00 0.000000000000e+00 0.000000000000e+00 0.000000000000e+00 0.000000000000e+00 0.000000000000e+00 0.000000000000e+00 0.000000000000e+00 0.000000000000e+00 0.000000000000e+00 0.000000000000e+00 0.000000000000e+00 0.000000000000e+00 0.000000000000e+00 0.000000000000e+00 0.000000000000e+00 0.000000000000e+00 0.000000000000e+00 0.000000000000e+00 0.000000000000e+00 0.000000000000e+00 0.000000000000e+00 0.000000000000e+00 0.000000000000e+00 0.000000000000e+00 0.000000000000e+00 0.000000000000e+00 0.000000000000e+00 0.000000000000e+00 0.000000000000e+00 0.000000000000e+00 0.000000000000e+00 0.000000000000e+00 0.000000000000e+00 0.000000000000e+00 0.000000000000e+00 0.000000000000e+00 0.000000000000e+00 0.000000000000e+00 0.000000000000e+00 0.000000000000e+00 0.000000000000e+00 0.000000000000e+00 0.000000000000e+00 0.000000000000e+00 0.000000000000e+00 0.000000000000e+00 0.000000000000e+00 0.000000000000e+00 0.000000000000e+00 0.000000000000e+00 0.000000000000e+00 0.000000000000e+00 0.000000000000e+00 0.000000000000e+00 0.000000000000e+00 0.000000000000e+00 0.000000000000e+00 0.000000000000e+00 0.000000000000e+00 0.000000000000e+00 0.000000000000e+00 0.000000000000e+00 0.000000000000e+00 0.000000000000e+00 0.000000000000e+00 0.000000000000e+00 0.000000000000e+00 0.000000000000e+00 0.000000000000e+00 0.000000000000e+00 0.000000000000e+00 0.000000000000e+00 0.000000000000e+00 0.000000000000e+00 0.000000000000e+00 0.000000000000e+00 0.000000000000e+00 0.000000000000e+00 0.000000000000e+00 0.000000000000e+00 0.000000000000e+00 0.000000000000e+00 0.000000000000e+00 0.000000000000e+00 0.000000000000e+00 0.000000000000e+00 0.000000000000e+00 0.000000000000e+00 0.000000000000e+00 0.000000000000e+00 0.000000000000e+00 0.000000000000e+00 0.000000000000e+00 0.000000000000e+00 
        </DataArray>
        <DataArray type="Float64" Name="STRAIN_PLS" format="ascii">
          0.000000000000e+00 0.000000000000e+00 0.000000000000e+00 0.000000000000e+00 0.000000000000e+00 0.000000000000e+00 0.000000000000e+00 0.000000000000e+00 0.000000000000e+00 0.000000000000e+00 0.000000000000e+00 0.000000000000e+00 0.000000000000e+00 0.000000000000e+00 0.000000000000e+00 0.000000000000e+00 0.000000000000e+00 0.000000000000e+00 0.000000000000e+00 0.000000000000e+00 0.000000000000e+00 0.000000000000e+00 0.000000000000e+00 0.000000000000e+00 0.000000000000e+00 0.000000000000e+00 0.000000000000e+00 0.000000000000e+00 0.000000000000e+00 0.000000000000e+00 0.000000000000e+00 0.000000000000e+00 0.000000000000e+00 0.000000000000e+00 0.000000000000e+00 0.000000000000e+00 0.000000000000e+00 0.000000000000e+00 0.000000000000e+00 0.000000000000e+00 0.000000000000e+00 0.000000000000e+00 0.000000000000e+00 0.000000000000e+00 0.000000000000e+00 0.000000000000e+00 0.000000000000e+00 0.000000000000e+00 0.000000000000e+00 0.000000000000e+00 0.000000000000e+00 0.000000000000e+00 0.000000000000e+00 0.000000000000e+00 0.000000000000e+00 0.000000000000e+00 0.000000000000e+00 0.000000000000e+00 0.000000000000e+00 0.000000000000e+00 0.000000000000e+00 0.000000000000e+00 0.000000000000e+00 0.000000000000e+00 0.000000000000e+00 0.000000000000e+00 0.000000000000e+00 0.000000000000e+00 0.000000000000e+00 0.000000000000e+00 0.000000000000e+00 0.000000000000e+00 0.000000000000e+00 0.000000000000e+00 0.000000000000e+00 0.000000000000e+00 0.000000000000e+00 0.000000000000e+00 0.000000000000e+00 0.000000000000e+00 0.000000000000e+00 0.000000000000e+00 0.000000000000e+00 0.000000000000e+00 0.000000000000e+00 0.000000000000e+00 0.000000000000e+00 0.000000000000e+00 0.000000000000e+00 0.000000000000e+00 0.000000000000e+00 0.000000000000e+00 0.000000000000e+00 0.000000000000e+00 0.000000000000e+00 0.000000000000e+00 0.000000000000e+00 0.000000000000e+00 0.000000000000e+00 0.000000000000e+00 0.000000000000e+00 0.000000000000e+00 0.000000000000e+00 0.000000000000e+00 0.000000000000e+00 0.000000000000e+00 0.000000000000e+00 0.000000000000e+00 0.000000000000e+00 0.000000000000e+00 0.000000000000e+00 0.000000000000e+00 0.000000000000e+00 0.000000000000e+00 0.000000000000e+00 0.000000000000e+00 0.000000000000e+00 0.000000000000e+00 0.000000000000e+00 0.000000000000e+00 0.000000000000e+00 
        </DataArray>
        <DataArray type="Float64" Name="DILATANCY" format="ascii">
          0.000000000000e+00 0.000000000000e+00 0.000000000000e+00 0.000000000000e+00 0.000000000000e+00 0.000000000000e+00 0.000000000000e+00 0.000000000000e+00 0.000000000000e+00 0.000000000000e+00 0.000000000000e+00 0.000000000000e+00 0.000000000000e+00 0.000000000000e+00 0.000000000000e+00 0.000000000000e+00 0.000000000000e+00 0.000000000000e+00 0.000000000000e+00 0.000000000000e+00 0.000000000000e+00 0.000000000000e+00 0.000000000000e+00 0.000000000000e+00 0.000000000000e+00 0.000000000000e+00 0.000000000000e+00 0.000000000000e+00 0.000000000000e+00 0.000000000000e+00 0.000000000000e+00 0.000000000000e+00 0.000000000000e+00 0.000000000000e+00 0.000000000000e+00 0.000000000000e+00 0.000000000000e+00 0.000000000000e+00 0.000000000000e+00 0.000000000000e+00 0.000000000000e+00 0.000000000000e+00 0.000000000000e+00 0.000000000000e+00 0.000000000000e+00 0.000000000000e+00 0.000000000000e+00 0.000000000000e+00 0.000000000000e+00 0.000000000000e+00 0.000000000000e+00 0.000000000000e+00 0.000000000000e+00 0.000000000000e+00 0.000000000000e+00 0.000000000000e+00 0.000000000000e+00 0.000000000000e+00 0.000000000000e+00 0.000000000000e+00 0.000000000000e+00 0.000000000000e+00 0.000000000000e+00 0.000000000000e+00 0.000000000000e+00 0.000000000000e+00 0.000000000000e+00 0.000000000000e+00 0.000000000000e+00 0.000000000000e+00 0.000000000000e+00 0.000000000000e+00 0.000000000000e+00 0.000000000000e+00 0.000000000000e+00 0.000000000000e+00 0.000000000000e+00 0.000000000000e+00 0.000000000000e+00 0.000000000000e+00 0.000000000000e+00 0.000000000000e+00 0.000000000000e+00 0.000000000000e+00 0.000000000000e+00 0.000000000000e+00 0.000000000000e+00 0.000000000000e+00 0.000000000000e+00 0.000000000000e+00 0.000000000000e+00 0.000000000000e+00 0.000000000000e+00 0.000000000000e+00 0.000000000000e+00 0.000000000000e+00 0.000000000000e+00 0.000000000000e+00 0.000000000000e+00 0.000000000000e+00 0.000000000000e+00 0.000000000000e+00 0.000000000000e+00 0.000000000000e+00 0.000000000000e+00 0.000000000000e+00 0.000000000000e+00 0.000000000000e+00 0.000000000000e+00 0.000000000000e+00 0.000000000000e+00 0.000000000000e+00 0.000000000000e+00 0.000000000000e+00 0.000000000000e+00 0.000000000000e+00 0.000000000000e+00 0.000000000000e+00 0.000000000000e+00 0.000000000000e+00 0.000000000000e+00 
        </DataArray>
        <DataArray type="Float64" Name="NODAL_VELOCITY1" NumberOfComponents="3" format="ascii">
          8.840532057821e-01 -7.028221759166e-02 0.000000000000e+00 9.917022524299e-01 -5.013662922909e-02 0.000000000000e+00 9.799448246076e-01 -1.096396942311e-02 0.000000000000e+00 9.855160473305e-01 -4.943902850080e-03 0.000000000000e+00 9.895889167718e-01 -2.810097318699e-03 0.000000000000e+00 9.923788701488e-01 -1.783224170157e-03 0.000000000000e+00 9.942888811044e-01 -1.184437869046e-03 0.000000000000e+00 9.955789452738e-01 -7.887797556574e-04 0.000000000000e+00 9.964068226865e-01 -5.023073347174e-04 0.000000000000e+00 9.968664769826e-01 -2.771557202673e-04 0.000000000000e+00 9.971975410735e-01 -1.973569529620e-04 0.000000000000e+00 9.758970899451e-01 -6.121362360491e-02 0.000000000000e+00 9.572220463554e-01 -2.625643525400e-02 0.000000000000e+00 9.804108888985e-01 -1.355285720646e-02 0.000000000000e+00 9.863598633135e-01 -7.321442055560e-03 0.000000000000e+00 9.901793896691e-01 -4.503488529260e-03 0.000000000000e+00 9.927806113440e-01 -2.963300720354e-03 0.000000000000e+00 9.945750309494e-01 -2.001303074527e-03 0.000000000000e+00 9.957941119171e-01 -1.340270750588e-03 0.000000000000e+00 9.965790995916e-01 -8.503112407938e-04 0.000000000000e+00 9.970157572000e-01 -4.591187487696e-04 0.000000000000e+00 9.973298673102e-01 -2.686334981916e-04 0.000000000000e+00 9.913155348018e-01 -3.207317775026e-02 0.000000000000e+00 9.866971719726e-01 -2.550760624064e-02 0.000000000000e+00 9.855187598488e-01 -1.673472281963e-02 0.000000000000e+00 9.893078964138e-01 -1.096687196774e-02 0.000000000000e+00 9.920059625815e-01 -7.354109996656e-03 0.000000000000e+00 9.940029920961e-01 -5.048763701404e-03 0.000000000000e+00 9.954449480836e-01 -3.481938810536e-03 0.000000000000e+00 9.964482422712e-01 -2.353975193820e-03 0.000000000000e+00 9.971017877700e-01 -1.496114538962e-03 0.000000000000e+00 9.974666787382e-01 -8.010678112549e-04 0.000000000000e+00 9.977803783424e-01 -4.209420311133e-04 0.000000000000e+00 9.961382490678e-01 -2.347374264386e-02 0.000000000000e+00 9.942074087282e-01 -2.111228515670e-02 0.000000000000e+00 9.924782937903e-01 -1.678445466877e-02 0.000000000000e+00 9.931270109774e-01 -1.245671258578e-02 0.000000000000e+00 9.945229951898e-01 -9.027506324623e-03 0.000000000000e+00 9.957736724395e-01 -6.461945565389e-03 0.000000000000e+00 9.967456371985e-01 -4.554363679778e-03 0.000000000000e+00 9.974443072472e-01 -3.112082993745e-03 0.000000000000e+00 9.979059879991e-01 -1.986185168009e-03 0.000000000000e+00 9.981646624090e-01 -1.061398149596e-03 0.000000000000e+00 9.984475995905e-01 -5.309558294737e-04 0.000000000000e+00 9.983461381176e-01 -2.009999444773e-02 0.000000000000e+00 9.976299152519e-01 -1.885802680242e-02 0.000000000000e+00 9.967528448767e-01 -1.616534961235e-02 0.000000000000e+00 9.967808018100e-01 -1.289962939260e-02 0.000000000000e+00 9.972782057579e-01 -9.815484624347e-03 0.000000000000e+00 9.978483197174e-01 -7.230388007114e-03 0.000000000000e+00 9.983242478814e-01 -5.174584273275e-03 0.000000000000e+00 9.986754234873e-01 -3.562896486892e-03 0.000000000000e+00 9.989094165793e-01 -2.280822173725e-03 0.000000000000e+00 9.990397896660e-01 -1.217511242617e-03 0.000000000000e+00 9.992657358653e-01 -5.892138536595e-04 0.000000000000e+00 9.997437747605e-01 -1.925094300684e-02 0.000000000000e+00 9.998937529650e-01 -1.828477863941e-02 0.000000000000e+00 9.999729512064e-01 -1.599337299840e-02 0.000000000000e+00 1.000027708116e+00 -1.301366411926e-02 0.000000000000e+00 1.000046592075e+00 -1.003423078919e-02 0.000000000000e+00 1.000043891164e+00 -7.444462746048e-03 0.000000000000e+00 1.000034300705e+00 -5.346482757555e-03 0.000000000000e+00 1.000024174084e+00 -3.686728598118e-03 0.000000000000e+00 1.000015028667e+00 -2.360247283755e-03 0.000000000000e+00 1.000006873209e+00 -1.257267430275e-03 0.000000000000e+00 1.000155080770e+00 -5.911402031908e-04 0.000000000000e+00 1.001005150897e+00 -2.040338256787e-02 0.000000000000e+00 1.002137006009e+00 -1.925343770098e-02 0.000000000000e+00 1.003233459585e+00 -1.647605845283e-02 0.000000000000e+00 1.003317964220e+00 -1.301744728447e-02 0.000000000000e+00 1.002834087402e+00 -9.777724535036e-03 0.000000000000e+00 1.002243333957e+00 -7.129510143304e-03 0.000000000000e+00 1.001743962492e+00 -5.070994566766e-03 0.000000000000e+00 1.001371642895e+00 -3.478126868269e-03 0.000000000000e+00 1.001119561242e+00 -2.219140463118e-03 0.000000000000e+00 1.000973405161e+00 -1.177595305982e-03 0.000000000000e+00 1.001029508295e+00 -5.365660881613e-04 0.000000000000e+00 1.002598083673e+00 -2.418986818398e-02 0.000000000000e+00 1.005532592558e+00 -2.217401426597e-02 0.000000000000e+00 1.007727091849e+00 -1.753485704686e-02 0.000000000000e+00 1.007117862061e+00 -1.260378933676e-02 0.000000000000e+00 1.005621341285e+00 -8.832232711766e-03 0.000000000000e+00 1.004322172385e+00 -6.208490102307e-03 0.000000000000e+00 1.003318920207e+00 -4.331879334388e-03 0.000000000000e+00 1.002598134121e+00 -2.940989997437e-03 0.000000000000e+00 1.002119532326e+00 -1.865149848152e-03 0.000000000000e+00 1.001846831425e+00 -9.841181751758e-04 0.000000000000e+00 1.001804135726e+00 -4.297299274618e-04 0.000000000000e+00 1.004979252036e+00 -3.346020848195e-02 0.000000000000e+00 1.013472103597e+00 -2.845621085800e-02 0.000000000000e+00 1.015650107609e+00 -1.820908332176e-02 0.000000000000e+00 1.010957495437e+00 -1.051930421501e-02 0.000000000000e+00 1.008140702572e+00 -6.788990092141e-03 0.000000000000e+00 1.006082001799e+00 -4.580747573066e-03 0.000000000000e+00 1.004607724460e+00 -3.130126819215e-03 0.000000000000e+00 1.003584736052e+00 -2.101358692504e-03 0.000000000000e+00 1.002917532842e+00 -1.323153998635e-03 0.000000000000e+00 1.002541913755e+00 -6.923859485093e-04 0.000000000000e+00 1.002403043871e+00 -2.797693473902e-04 0.000000000000e+00 1.002300068975e+00 -6.240167304278e-02 0.000000000000e+00 1.054721582018e+00 -4.224924818983e-02 0.000000000000e+00 1.019071884944e+00 -1.030777147050e-02 0.000000000000e+00 1.013836883158e+00 -5.657228270646e-03 0.000000000000e+00 1.009911452238e+00 -3.468379730749e-03 0.000000000000e+00 1.007270379189e+00 -2.286028157650e-03 0.000000000000e+00 1.005455067526e+00 -1.542170531865e-03 0.000000000000e+00 1.004224130379e+00 -1.026664529932e-03 0.000000000000e+00 1.003431388084e+00 -6.408704783212e-04 0.000000000000e+00 1.002988862779e+00 -3.291449728020e-04 0.000000000000e+00 1.002766787036e+00 -1.009152944337e-04 0.000000000000e+00 1.105555995821e+00 -1.035097098951e-01 0.000000000000e+00 1.007142237993e+00 -1.618345112189e-02 0.000000000000e+00 1.022774672057e+00 -4.821095845308e-03 0.000000000000e+00 1.015023662545e+00 -2.548905219632e-03 0.000000000000e+00 1.010632732725e+00 -1.551156893945e-03 0.000000000000e+00 1.007728731483e+00 -1.016569977994e-03 0.000000000000e+00 1.005772120510e+00 -6.828377937965e-04 0.000000000000e+00 1.004459035167e+00 -4.522659059255e-04 0.000000000000e+00 1.003617950651e+00 -2.796192083974e-04 0.000000000000e+00 1.003149705382e+00 -1.396032018891e-04 0.000000000000e+00 1.002915320565e+00 -2.030009614862e-05 0.000000000000e+00 
        </DataArray>
        <DataArray type="Float64" Name="DISPLACEMENT" NumberOfComponents="3" format="ascii">
          0.000000000000e+00 0.000000000000e+00 0.000000000000e+00 8.853764473446e-04 0.000000000000e+00 0.000000000000e+00 1.646398885199e-03 0.000000000000e+00 0.000000000000e+00 2.294178530377e-03 0.000000000000e+00 0.000000000000e+00 2.838019705964e-03 0.000000000000e+00 0.000000000000e+00 3.284811580353e-03 0.000000000000e+00 0.000000000000e+00 3.638645993824e-03 0.000000000000e+00 0.000000000000e+00 3.900561480816e-03 0.000000000000e+00 0.000000000000e+00 4.068269108168e-03 0.000000000000e+00 0.000000000000e+00 4.135706000426e-03 0.000000000000e+00 0.000000000000e+00 4.092239271542e-03 0.000000000000e+00 0.000000000000e+00 0.000000000000e+00 7.157421508933e-04 0.000000000000e+00 8.860615112076e-04 7.068512725688e-04 0.000000000000e+00 1.647873211273e-03 6.808431175758e-04 0.000000000000e+00 2.296616390601e-03 6.396304758019e-04 0.000000000000e+00 2.841592260107e-03 5.861205310605e-04 0.000000000000e+00 3.289630785515e-03 5.239115104149e-04 0.000000000000e+00 3.644745034858e-03 4.570565763443e-04 0.000000000000e+00 3.907924783545e-03 3.899750588299e-04 0.000000000000e+00 4.076911732811e-03 3.275458317403e-04 0.000000000000e+00 4.145789509141e-03 2.753692153254e-04 0.000000000000e+00 4.104195342348e-03 2.401318926597e-04 0.000000000000e+00 0.000000000000e+00 1.435623384933e-03 0.000000000000e+00 8.883932081509e-04 1.417554737480e-03 0.000000000000e+00 1.652872524690e-03 1.364755709371e-03 0.000000000000e+00 2.304815487414e-03 1.281221472570e-03 0.000000000000e+00 2.853500533537e-03 1.172954780318e-03 0.000000000000e+00 3.305556013972e-03 1.047282254287e-03 0.000000000000e+00 3.664734396037e-03 9.123299426250e-04 0.000000000000e+00 3.931859462332e-03 7.768281566479e-04 0.000000000000e+00 4.104752187876e-03 6.503108401630e-04 0.000000000000e+00 4.177936529455e-03 5.436858832677e-04 0.000000000000e+00 4.141888554193e-03 4.700591764019e-04 0.000000000000e+00 0.000000000000e+00 2.163514392697e-03 0.000000000000e+00 8.932412568205e-04 2.135672993604e-03 0.000000000000e+00 1.663177626501e-03 2.054451965969e-03 0.000000000000e+00 2.321503008151e-03 1.926315561126e-03 0.000000000000e+00 2.877396569534e-03 1.760785030260e-03 0.000000000000e+00 3.337066389494e-03 1.569195383630e-03 0.000000000000e+00 3.703753810122e-03 1.363783991498e-03 0.000000000000e+00 3.977948130856e-03 1.157363762828e-03 0.000000000000e+00 4.157565013433e-03 9.636520929049e-04 0.000000000000e+00 4.237861319233e-03 7.982276291277e-04 0.000000000000e+00 4.210792609223e-03 6.799895544278e-04 0.000000000000e+00 0.000000000000e+00 2.902796775793e-03 0.000000000000e+00 9.021508837227e-04 2.864200679313e-03 0.000000000000e+00 1.681946730875e-03 2.751914797719e-03 0.000000000000e+00 2.351490288650e-03 2.575593869891e-03 0.000000000000e+00 2.919662425611e-03 2.349021223483e-03 0.000000000000e+00 3.391895655878e-03 2.087993030035e-03 0.000000000000e+00 3.770575583210e-03 1.808899152688e-03 0.000000000000e+00 4.055636425494e-03 1.528263442851e-03 0.000000000000e+00 4.245069438747e-03 1.263233726593e-03 0.000000000000e+00 4.335147124195e-03 1.032993463585e-03 0.000000000000e+00 4.320036589099e-03 8.610649031604e-04 0.000000000000e+00 0.000000000000e+00 3.656056727553e-03 0.000000000000e+00 9.175316853749e-04 3.605199248632e-03 0.000000000000e+00 1.714100439125e-03 3.457910764067e-03 0.000000000000e+00 2.402201217355e-03 3.228338627230e-03 0.000000000000e+00 2.989964284609e-03 2.935723806335e-03 0.000000000000e+00 3.481489721287e-03 2.600932468320e-03 0.000000000000e+00 3.877898478966e-03 2.244486206741e-03 0.000000000000e+00 4.178369679895e-03 1.886072289943e-03 0.000000000000e+00 4.380962945865e-03 1.545227462996e-03 0.000000000000e+00 4.483222133204e-03 1.243172398870e-03 0.000000000000e+00 4.482307244768e-03 1.006077402989e-03 0.000000000000e+00 0.000000000000e+00 4.424671709288e-03 0.000000000000e+00 9.430714993399e-04 4.359262025574e-03 0.000000000000e+00 1.767144937757e-03 4.171280255402e-03 0.000000000000e+00 2.484745160964e-03 3.881746916474e-03 0.000000000000e+00 3.102291016205e-03 3.517133375842e-03 0.000000000000e+00 3.621767195814e-03 3.103971818076e-03 0.000000000000e+00 4.042722699917e-03 2.666661948321e-03 0.000000000000e+00 4.363615034325e-03 2.227300730241e-03 0.000000000000e+00 4.582717885913e-03 1.806572173858e-03 0.000000000000e+00 4.699057385636e-03 1.425709004687e-03 0.000000000000e+00 4.713456963974e-03 1.110470324916e-03 0.000000000000e+00 0.000000000000e+00 5.208133990450e-03 0.000000000000e+00 9.846674445539e-04 5.124573408504e-03 0.000000000000e+00 1.852962874962e-03 4.887759053532e-03 0.000000000000e+00 2.616055859467e-03 4.530054046170e-03 0.000000000000e+00 3.276802531814e-03 4.087365407967e-03 0.000000000000e+00 3.834298771803e-03 3.591925763033e-03 0.000000000000e+00 4.286757207621e-03 3.071217649952e-03 0.000000000000e+00 4.632575562544e-03 2.548798487387e-03 0.000000000000e+00 4.870827773777e-03 2.045327747366e-03 0.000000000000e+00 5.002233081434e-03 1.579923704730e-03 0.000000000000e+00 5.031488925354e-03 1.173676818316e-03 0.000000000000e+00 0.000000000000e+00 6.002724274038e-03 0.000000000000e+00 1.052765156430e-03 5.894914379541e-03 0.000000000000e+00 1.991916864262e-03 5.597894170718e-03 0.000000000000e+00 2.823025639074e-03 5.163654338042e-03 0.000000000000e+00 3.542828270214e-03 4.638722020886e-03 0.000000000000e+00 4.147949648642e-03 4.059418912568e-03 0.000000000000e+00 4.636801696152e-03 3.454746577300e-03 0.000000000000e+00 5.009405718815e-03 2.848702006592e-03 0.000000000000e+00 5.267057939756e-03 2.261239000554e-03 0.000000000000e+00 5.412742195289e-03 1.708043679030e-03 0.000000000000e+00 5.454325172845e-03 1.200772055692e-03 0.000000000000e+00 0.000000000000e+00 6.798362713857e-03 0.000000000000e+00 1.169700764919e-03 6.654512850382e-03 0.000000000000e+00 2.222788860708e-03 6.283943176160e-03 0.000000000000e+00 3.149590131074e-03 5.769486114927e-03 0.000000000000e+00 3.942764776171e-03 5.163570672883e-03 0.000000000000e+00 4.600692710100e-03 4.503118108527e-03 0.000000000000e+00 5.125127490281e-03 3.816878034533e-03 0.000000000000e+00 5.520088689487e-03 3.128451359800e-03 0.000000000000e+00 5.791379195721e-03 2.457015550250e-03 0.000000000000e+00 5.946319104592e-03 1.815454759711e-03 0.000000000000e+00 5.995076064177e-03 1.204136755211e-03 0.000000000000e+00 0.000000000000e+00 7.566439393230e-03 0.000000000000e+00 1.403579988107e-03 7.363796658031e-03 0.000000000000e+00 2.623246264476e-03 6.921724611464e-03 0.000000000000e+00 3.664603188793e-03 6.336294561942e-03 0.000000000000e+00 4.534717655175e-03 5.658813367118e-03 0.000000000000e+00 5.240653681292e-03 4.925202194432e-03 0.000000000000e+00 5.790154776282e-03 4.163443982672e-03 0.000000000000e+00 6.192360681136e-03 3.396346100487e-03 0.000000000000e+00 6.458912959404e-03 2.642073605829e-03 0.000000000000e+00 6.605488788754e-03 1.911988499056e-03 0.000000000000e+00 6.651427424165e-03 1.202323826267e-03 0.000000000000e+00 
        </DataArray>
        <DataArray type="Float64" Name="DENSITY" format="ascii">
          8.917079500000e-07 9.025371550052e-07 9.133663600098e-07 9.241955650135e-07 9.350247700159e-07 9.458539750167e-07 9.566831800159e-07 9.675123850135e-07 9.783415900098e-07 9.891707950051e-07 1.000000000000e-06 8.917079500000e-07 9.025371550052e-07 9.133663600098e-07 9.241955650135e-07 9.350247700159e-07 9.458539750167e-07 9.566831800159e-07 9.675123850135e-07 9.783415900098e-07 9.891707950051e-07 1.000000000000e-06 8.917079500000e-07 9.025371550052e-07 9.133663600098e-07 9.241955650135e-07 9.350247700159e-07 9.458539750167e-07 9.566831800159e-07 9.675123850135e-07 9.783415900098e-07 9.891707950051e-07 1.000000000000e-06 8.917079500000e-07 9.025371550052e-07 9.133663600098e-07 9.241955650135e-07 9.350247700159e-07 9.458539750167e-07 9.566831800159e-07 9.675123850135e-07 9.783415900098e-07 9.891707950051e-07 1.000000000000e-06 8.917079500000e-07 9.025371550052e-07 9.133663600098e-07 9.241955650135e-07 9.350247700159e-07 9.458539750167e-07 9.566831800159e-07 9.675123850135e-07 9.783415900098e-07 9.891707950051e-07 1.000000000000e-06 8.917079500000e-07 9.025371550052e-07 9.133663600098e-07 9.241955650135e-07 9.350247700159e-07 9.458539750167e-07 9.566831800159e-07 9.675123850135e-07 9.783415900098e-07 9.891707950051e-07 1.000000000000e-06 8.917079500000e-07 9.025371550052e-07 9.133663600098e-07 9.241955650135e-07 9.350247700159e-07 9.458539750167e-07 9.566831800159e-07 9.675123850135e-07 9.783415900098e-07 9.891707950051e-07 1.000000000000e-06 8.917079500000e-07 9.025371550052e-07 9.133663600098e-07 9.241955650135e-07 9.350247700159e-07 9.458539750167e-07 9.566831800159e-07 9.675123850135e-07 9.783415900098e-07 9.891707950051e-07 1.000000000000e-06 8.917079500000e-07 9.025371550052e-07 9.133663600098e-07 9.241955650135e-07 9.350247700159e-07 9.458539750167e-07 9.566831800159e-07 9.675123850135e-07 9.783415900098e-07 9.891707950051e-07 1.000000000000e-06 8.917079500000e-07 9.025371550052e-07 9.133663600098e-07 9.241955650135e-07 9.350247700159e-07 9.458539750167e-07 9.566831800159e-07 9.675123850135e-07 9.783415900098e-07 9.891707950051e-07 1.000000000000e-06 8.917079500000e-07 9.025371550052e-07 9.133663600098e-07 9.241955650135e-07 9.350247700159e-07 9.458539750167e-07 9.566831800159e-07 9.675123850135e-07 9.783415900098e-07 9.891707950051e-07 1.000000000000e-06 
        </DataArray>
        <DataArray type="Float64" Name="VISCOSITY" format="ascii">
          1.278000000000e-09 1.278000000000e-09 1.278000000000e-09 1.278000000000e-09 1.278000000000e-09 1.278000000000e-09 1.278000000000e-09 1.278000000000e-09 1.278000000000e-09 1.278000000000e-09 1.278000000000e-09 1.278000000000e-09 1.278000000000e-09 1.278000000000e-09 1.278000000000e-09 1.278000000000e-09 1.278000000000e-09 1.278000000000e-09 1.278000000000e-09 1.278000000000e-09 1.278000000000e-09 1.278000000000e-09 1.278000000000e-09 1.278000000000e-09 1.278000000000e-09 1.278000000000e-09 1.278000000000e-09 1.278000000000e-09 1.278000000000e-09 1.278000000000e-09 1.278000000000e-09 1.278000000000e-09 1.278000000000e-09 1.278000000000e-09 1.278000000000e-09 1.278000000000e-09 1.278000000000e-09 1.278000000000e-09 1.278000000000e-09 1.278000000000e-09 1.278000000000e-09 1.278000000000e-09 1.278000000000e-09 1.278000000000e-09 1.278000000000e-09 1.278000000000e-09 1.278000000000e-09 1.278000000000e-09 1.278000000000e-09 1.278000000000e-09 1.278000000000e-09 1.278000000000e-09 1.278000000000e-09 1.278000000000e-09 1.278000000000e-09 1.278000000000e-09 1.278000000000e-09 1.278000000000e-09 1.278000000000e-09 1.278000000000e-09 1.278000000000e-09 1.278000000000e-09 1.278000000000e-09 1.278000000000e-09 1.278000000000e-09 1.278000000000e-09 1.278000000000e-09 1.278000000000e-09 1.278000000000e-09 1.278000000000e-09 1.278000000000e-09 1.278000000000e-09 1.278000000000e-09 1.278000000000e-09 1.278000000000e-09 1.278000000000e-09 1.278000000000e-09 1.278000000000e-09 1.278000000000e-09 1.278000000000e-09 1.278000000000e-09 1.278000000000e-09 1.278000000000e-09 1.278000000000e-09 1.278000000000e-09 1.278000000000e-09 1.278000000000e-09 1.278000000000e-09 1.278000000000e-09 1.278000000000e-09 1.278000000000e-09 1.278000000000e-09 1.278000000000e-09 1.278000000000e-09 1.278000000000e-09 1.278000000000e-09 1.278000000000e-09 1.278000000000e-09 1.278000000000e-09 1.278000000000e-09 1.278000000000e-09 1.278000000000e-09 1.278000000000e-09 1.278000000000e-09 1.278000000000e-09 1.278000000000e-09 1.278000000000e-09 1.278000000000e-09 1.278000000000e-09 1.278000000000e-09 1.278000000000e-09 1.278000000000e-09 1.278000000000e-09 1.278000000000e-09 1.278000000000e-09 1.278000000000e-09 1.278000000000e-09 1.278000000000e-09 1.278000000000e-09 1.278000000000e-09 1.278000000000e-09 
        </DataArray>
        <DataArray type="Float64" Name="SPECIFIC_HEAT_CAPACITY" format="ascii">
          4.680000000000e+03 4.680000000000e+03 4.680000000000e+03 4.680000000000e+03 4.680000000000e+03 4.680000000000e+03 4.680000000000e+03 4.680000000000e+03 4.680000000000e+03 4.680000000000e+03 4.680000000000e+03 4.680000000000e+03 4.680000000000e+03 4.680000000000e+03 4.680000000000e+03 4.680000000000e+03 4.680000000000e+03 4.680000000000e+03 4.680000000000e+03 4.680000000000e+03 4.680000000000e+03 4.680000000000e+03 4.680000000000e+03 4.680000000000e+03 4.680000000000e+03 4.680000000000e+03 4.680000000000e+03 4.680000000000e+03 4.680000000000e+03 4.680000000000e+03 4.680000000000e+03 4.680000000000e+03 4.680000000000e+03 4.680000000000e+03 4.680000000000e+03 4.680000000000e+03 4.680000000000e+03 4.680000000000e+03 4.680000000000e+03 4.680000000000e+03 4.680000000000e+03 4.680000000000e+03 4.680000000000e+03 4.680000000000e+03 4.680000000000e+03 4.680000000000e+03 4.680000000000e+03 4.680000000000e+03 4.680000000000e+03 4.680000000000e+03 4.680000000000e+03 4.680000000000e+03 4.680000000000e+03 4.680000000000e+03 4.680000000000e+03 4.680000000000e+03 4.680000000000e+03 4.680000000000e+03 4.680000000000e+03 4.680000000000e+03 4.680000000000e+03 4.680000000000e+03 4.680000000000e+03 4.680000000000e+03 4.680000000000e+03 4.680000000000e+03 4.680000000000e+03 4.680000000000e+03 4.680000000000e+03 4.680000000000e+03 4.680000000000e+03 4.680000000000e+03 4.680000000000e+03 4.680000000000e+03 4.680000000000e+03 4.680000000000e+03 4.680000000000e+03 4.680000000000e+03 4.680000000000e+03 4.680000000000e+03 4.680000000000e+03 4.680000000000e+03 4.680000000000e+03 4.680000000000e+03 4.680000000000e+03 4.680000000000e+03 4.680000000000e+03 4.680000000000e+03 4.680000000000e+03 4.680000000000e+03 4.680000000000e+03 4.680000000000e+03 4.680000000000e+03 4.680000000000e+03 4.680000000000e+03 4.680000000000e+03 4.680000000000e+03 4.680000000000e+03 4.680000000000e+03 4.680000000000e+03 4.680000000000e+03 4.680000000000e+03 4.680000000000e+03 4.680000000000e+03 4.680000000000e+03 4.680000000000e+03 4.680000000000e+03 4.680000000000e+03 4.680000000000e+03 4.680000000000e+03 4.680000000000e+03 4.680000000000e+03 4.680000000000e+03 4.680000000000e+03 4.680000000000e+03 4.680000000000e+03 4.680000000000e+03 4.680000000000e+03 4.680000000000e+03 4.680000000000e+03 4.680000000000e+03 
        </DataArray>
        <DataArray type="Float64" Name="HEAT_CONDUCTIVITY" format="ascii">
          6.000000000000e-01 6.000000000000e-01 6.000000000000e-01 6.000000000000e-01 6.000000000000e-01 6.000000000000e-01 6.000000000000e-01 6.000000000000e-01 6.000000000000e-01 6.000000000000e-01 6.000000000000e-01 6.000000000000e-01 6.000000000000e-01 6.000000000000e-01 6.000000000000e-01 6.000000000000e-01 6.000000000000e-01 6.000000000000e-01 6.000000000000e-01 6.000000000000e-01 6.000000000000e-01 6.000000000000e-01 6.000000000000e-01 6.000000000000e-01 6.000000000000e-01 6.000000000000e-01 6.000000000000e-01 6.000000000000e-01 6.000000000000e-01 6.000000000000e-01 6.000000000000e-01 6.000000000000e-01 6.000000000000e-01 6.000000000000e-01 6.000000000000e-01 6.000000000000e-01 6.000000000000e-01 6.000000000000e-01 6.000000000000e-01 6.000000000000e-01 6.000000000000e-01 6.000000000000e-01 6.000000000000e-01 6.000000000000e-01 6.000000000000e-01 6.000000000000e-01 6.000000000000e-01 6.000000000000e-01 6.000000000000e-01 6.000000000000e-01 6.000000000000e-01 6.000000000000e-01 6.000000000000e-01 6.000000000000e-01 6.000000000000e-01 6.000000000000e-01 6.000000000000e-01 6.000000000000e-01 6.000000000000e-01 6.000000000000e-01 6.000000000000e-01 6.000000000000e-01 6.000000000000e-01 6.000000000000e-01 6.000000000000e-01 6.000000000000e-01 6.000000000000e-01 6.000000000000e-01 6.000000000000e-01 6.000000000000e-01 6.000000000000e-01 6.000000000000e-01 6.000000000000e-01 6.000000000000e-01 6.000000000000e-01 6.000000000000e-01 6.000000000000e-01 6.000000000000e-01 6.000000000000e-01 6.000000000000e-01 6.000000000000e-01 6.000000000000e-01 6.000000000000e-01 6.000000000000e-01 6.000000000000e-01 6.000000000000e-01 6.000000000000e-01 6.000000000000e-01 6.000000000000e-01 6.000000000000e-01 6.000000000000e-01 6.000000000000e-01 6.000000000000e-01 6.000000000000e-01 6.000000000000e-01 6.000000000000e-01 6.000000000000e-01 6.000000000000e-01 6.000000000000e-01 6.000000000000e-01 6.000000000000e-01 6.000000000000e-01 6.000000000000e-01 6.000000000000e-01 6.000000000000e-01 6.000000000000e-01 6.000000000000e-01 6.000000000000e-01 6.000000000000e-01 6.000000000000e-01 6.000000000000e-01 6.000000000000e-01 6.000000000000e-01 6.000000000000e-01 6.000000000000e-01 6.000000000000e-01 6.000000000000e-01 6.000000000000e-01 6.000000000000e-01 6.000000000000e-01 6.000000000000e-01 
        </DataArray>
      </PointData>
      <CellData>
        <DataArray type="Float64" Name="DENSITY" format="ascii">
          8.971225525026e-07 9.079517575075e-07 9.187809625117e-07 9.296101675147e-07 9.404393725163e-07 9.512685775163e-07 9.620977825147e-07 9.729269875116e-07 9.837561925075e-07 9.945853975026e-07 8.971225525026e-07 9.079517575075e-07 9.187809625117e-07 9.296101675147e-07 9.404393725163e-07 9.512685775163e-07 9.620977825147e-07 9.729269875116e-07 9.837561925075e-07 9.945853975026e-07 8.971225525026e-07 9.079517575075e-07 9.187809625117e-07 9.296101675147e-07 9.404393725163e-07 9.512685775163e-07 9.620977825147e-07 9.729269875116e-07 9.837561925075e-07 9.945853975026e-07 8.971225525026e-07 9.079517575075e-07 9.187809625117e-07 9.296101675147e-07 9.404393725163e-07 9.512685775163e-07 9.620977825147e-07 9.729269875116e-07 9.837561925075e-07 9.945853975026e-07 8.971225525026e-07 9.079517575075e-07 9.187809625117e-07 9.296101675147e-07 9.404393725163e-07 9.512685775163e-07 9.620977825147e-07 9.729269875116e-07 9.837561925075e-07 9.945853975026e-07 8.971225525026e-07 9.079517575075e-07 9.187809625117e-07 9.296101675147e-07 9.404393725163e-07 9.512685775163e-07 9.620977825147e-07 9.729269875116e-07 9.837561925075e-07 9.945853975026e-07 8.971225525026e-07 9.079517575075e-07 9.187809625117e-07 9.296101675147e-07 9.404393725163e-07 9.512685775163e-07 9.620977825147e-07 9.729269875116e-07 9.837561925075e-07 9.945853975026e-07 8.971225525026e-07 9.079517575075e-07 9.187809625117e-07 9.296101675147e-07 9.404393725163e-07 9.512685775163e-07 9.620977825147e-07 9.729269875116e-07 9.837561925075e-07 9.945853975026e-07 8.971225525026e-07 9.079517575075e-07 9.187809625117e-07 9.296101675147e-07 9.404393725163e-07 9.512685775163e-07 9.620977825147e-07 9.729269875116e-07 9.837561925075e-07 9.945853975026e-07 8.971225525026e-07 9.079517575075e-07 9.187809625117e-07 9.296101675147e-07 9.404393725163e-07 9.512685775163e-07 9.620977825147e-07 9.729269875116e-07 9.837561925075e-07 9.945853975026e-07 
        </DataArray>
        <DataArray type="Float64" Name="VISCOSITY" format="ascii">
          1.278000000000e-09 1.278000000000e-09 1.278000000000e-09 1.278000000000e-09 1.278000000000e-09 1.278000000000e-09 1.278000000000e-09 1.278000000000e-09 1.278000000000e-09 1.278000000000e-09 1.278000000000e-09 1.278000000000e-09 1.278000000000e-09 1.278000000000e-09 1.278000000000e-09 1.278000000000e-09 1.278000000000e-09 1.278000000000e-09 1.278000000000e-09 1.278000000000e-09 1.278000000000e-09 1.278000000000e-09 1.278000000000e-09 1.278000000000e-09 1.278000000000e-09 1.278000000000e-09 1.278000000000e-09 1.278000000000e-09 1.278000000000e-09 1.278000000000e-09 1.278000000000e-09 1.278000000000e-09 1.278000000000e-09 1.278000000000e-09 1.278000000000e-09 1.278000000000e-09 1.278000000000e-09 1.278000000000e-09 1.278000000000e-09 1.278000000000e-09 1.278000000000e-09 1.278000000000e-09 1.278000000000e-09 1.278000000000e-09 1.278000000000e-09 1.278000000000e-09 1.278000000000e-09 1.278000000000e-09 1.278000000000e-09 1.278000000000e-09 1.278000000000e-09 1.278000000000e-09 1.278000000000e-09 1.278000000000e-09 1.278000000000e-09 1.278000000000e-09 1.278000000000e-09 1.278000000000e-09 1.278000000000e-09 1.278000000000e-09 1.278000000000e-09 1.278000000000e-09 1.278000000000e-09 1.278000000000e-09 1.278000000000e-09 1.278000000000e-09 1.278000000000e-09 1.278000000000e-09 1.278000000000e-09 1.278000000000e-09 1.278000000000e-09 1.278000000000e-09 1.278000000000e-09 1.278000000000e-09 1.278000000000e-09 1.278000000000e-09 1.278000000000e-09 1.278000000000e-09 1.278000000000e-09 1.278000000000e-09 1.278000000000e-09 1.278000000000e-09 1.278000000000e-09 1.278000000000e-09 1.278000000000e-09 1.278000000000e-09 1.278000000000e-09 1.278000000000e-09 1.278000000000e-09 1.278000000000e-09 1.278000000000e-09 1.278000000000e-09 1.278000000000e-09 1.278000000000e-09 1.278000000000e-09 1.278000000000e-09 1.278000000000e-09 1.278000000000e-09 1.278000000000e-09 1.278000000000e-09 
        </DataArray>
      </CellData>
    </Piece>
  </UnstructuredGrid>
</VTKFile>
