<?xml version="1.0"?>
<!-- Time step: 12 | Time: 1.200000000000e+01 -->
<VTKFile type="UnstructuredGrid" version="0.1" byte_order="LittleEndian">
  <UnstructuredGrid>
    <Piece NumberOfPoints="121" NumberOfCells="100">
      <Points>
        <DataArray type="Float64" NumberOfComponents="3" format="ascii">
          0.000000000000e+00 0.000000000000e+00 0.000000000000e+00
          1.000000000000e-01 0.000000000000e+00 0.000000000000e+00
          2.000000000000e-01 0.000000000000e+00 0.000000000000e+00
          3.000000000000e-01 0.000000000000e+00 0.000000000000e+00
          4.000000000000e-01 0.000000000000e+00 0.000000000000e+00
          5.000000000000e-01 0.000000000000e+00 0.000000000000e+00
          6.000000000000e-01 0.000000000000e+00 0.000000000000e+00
          7.000000000000e-01 0.000000000000e+00 0.000000000000e+00
          8.000000000000e-01 0.000000000000e+00 0.000000000000e+00
          9.000000000000e-01 0.000000000000e+00 0.000000000000e+00
          1.000000000000e+00 0.000000000000e+00 0.000000000000e+00
          0.000000000000e+00 1.000000000000e-01 0.000000000000e+00
          1.000000000000e-01 1.000000000000e-01 0.000000000000e+00
          2.000000000000e-01 1.000000000000e-01 0.000000000000e+00
          3.000000000000e-01 1.000000000000e-01 0.000000000000e+00
          4.000000000000e-01 1.000000000000e-01 0.000000000000e+00
          5.000000000000e-01 1.000000000000e-01 0.000000000000e+00
          6.000000000000e-01 1.000000000000e-01 0.000000000000e+00
          7.000000000000e-01 1.000000000000e-01 0.000000000000e+00
          8.000000000000e-01 1.000000000000e-01 0.000000000000e+00
          9.000000000000e-01 1.000000000000e-01 0.000000000000e+00
          1.000000000000e+00 1.000000000000e-01 0.000000000000e+00
          0.000000000000e+00 2.000000000000e-01 0.000000000000e+00
          1.000000000000e-01 2.000000000000e-01 0.000000000000e+00
          2.000000000000e-01 2.000000000000e-01 0.000000000000e+00
          3.000000000000e-01 2.000000000000e-01 0.000000000000e+00
          4.000000000000e-01 2.000000000000e-01 0.000000000000e+00
          5.000000000000e-01 2.000000000000e-01 0.000000000000e+00
          6.000000000000e-01 2.000000000000e-01 0.000000000000e+00
          7.000000000000e-01 2.000000000000e-01 0.000000000000e+00
          8.000000000000e-01 2.000000000000e-01 0.000000000000e+00
          9.000000000000e-01 2.000000000000e-01 0.000000000000e+00
          1.000000000000e+00 2.000000000000e-01 0.000000000000e+00
          0.000000000000e+00 3.000000000000e-01 0.000000000000e+00
          1.000000000000e-01 3.000000000000e-01 0.000000000000e+00
          2.000000000000e-01 3.000000000000e-01 0.000000000000e+00
          3.000000000000e-01 3.000000000000e-01 0.000000000000e+00
          4.000000000000e-01 3.000000000000e-01 0.000000000000e+00
          5.000000000000e-01 3.000000000000e-01 0.000000000000e+00
          6.000000000000e-01 3.000000000000e-01 0.000000000000e+00
          7.000000000000e-01 3.000000000000e-01 0.000000000000e+00
          8.000000000000e-01 3.000000000000e-01 0.000000000000e+00
          9.000000000000e-01 3.000000000000e-01 0.000000000000e+00
          1.000000000000e+00 3.000000000000e-01 0.000000000000e+00
          0.000000000000e+00 4.000000000000e-01 0.000000000000e+00
          1.000000000000e-01 4.000000000000e-01 0.000000000000e+00
          2.000000000000e-01 4.000000000000e-01 0.000000000000e+00
          3.000000000000e-01 4.000000000000e-01 0.000000000000e+00
          4.000000000000e-01 4.000000000000e-01 0.000000000000e+00
          5.000000000000e-01 4.000000000000e-01 0.000000000000e+00
          6.000000000000e-01 4.000000000000e-01 0.000000000000e+00
          7.000000000000e-01 4.000000000000e-01 0.000000000000e+00
          8.000000000000e-01 4.000000000000e-01 0.000000000000e+00
          9.000000000000e-01 4.000000000000e-01 0.000000000000e+00
          1.000000000000e+00 4.000000000000e-01 0.000000000000e+00
          0.000000000000e+00 5.000000000000e-01 0.000000000000e+00
          1.000000000000e-01 5.000000000000e-01 0.000000000000e+00
          2.000000000000e-01 5.000000000000e-01 0.000000000000e+00
          3.000000000000e-01 5.000000000000e-01 0.000000000000e+00
          4.000000000000e-01 5.000000000000e-01 0.000000000000e+00
          5.000000000000e-01 5.000000000000e-01 0.000000000000e+00
          6.000000000000e-01 5.000000000000e-01 0.000000000000e+00
          7.000000000000e-01 5.000000000000e-01 0.000000000000e+00
          8.000000000000e-01 5.000000000000e-01 0.000000000000e+00
          9.000000000000e-01 5.000000000000e-01 0.000000000000e+00
          1.000000000000e+00 5.000000000000e-01 0.000000000000e+00
          0.000000000000e+00 6.000000000000e-01 0.000000000000e+00
          1.000000000000e-01 6.000000000000e-01 0.000000000000e+00
          2.000000000000e-01 6.000000000000e-01 0.000000000000e+00
          3.000000000000e-01 6.000000000000e-01 0.000000000000e+00
          4.000000000000e-01 6.000000000000e-01 0.000000000000e+00
          5.000000000000e-01 6.000000000000e-01 0.000000000000e+00
          6.000000000000e-01 6.000000000000e-01 0.000000000000e+00
          7.000000000000e-01 6.000000000000e-01 0.000000000000e+00
          8.000000000000e-01 6.000000000000e-01 0.000000000000e+00
          9.000000000000e-01 6.000000000000e-01 0.000000000000e+00
          1.000000000000e+00 6.000000000000e-01 0.000000000000e+00
          0.000000000000e+00 7.000000000000e-01 0.000000000000e+00
          1.000000000000e-01 7.000000000000e-01 0.000000000000e+00
          2.000000000000e-01 7.000000000000e-01 0.000000000000e+00
          3.000000000000e-01 7.000000000000e-01 0.000000000000e+00
          4.000000000000e-01 7.000000000000e-01 0.000000000000e+00
          5.000000000000e-01 7.000000000000e-01 0.000000000000e+00
          6.000000000000e-01 7.000000000000e-01 0.000000000000e+00
          7.000000000000e-01 7.000000000000e-01 0.000000000000e+00
          8.000000000000e-01 7.000000000000e-01 0.000000000000e+00
          9.000000000000e-01 7.000000000000e-01 0.000000000000e+00
          1.000000000000e+00 7.000000000000e-01 0.000000000000e+00
          0.000000000000e+00 8.000000000000e-01 0.000000000000e+00
          1.000000000000e-01 8.000000000000e-01 0.000000000000e+00
          2.000000000000e-01 8.000000000000e-01 0.000000000000e+00
          3.000000000000e-01 8.000000000000e-01 0.000000000000e+00
          4.000000000000e-01 8.000000000000e-01 0.000000000000e+00
          5.000000000000e-01 8.000000000000e-01 0.000000000000e+00
          6.000000000000e-01 8.000000000000e-01 0.000000000000e+00
          7.000000000000e-01 8.000000000000e-01 0.000000000000e+00
          8.000000000000e-01 8.000000000000e-01 0.000000000000e+00
          9.000000000000e-01 8.000000000000e-01 0.000000000000e+00
          1.000000000000e+00 8.000000000000e-01 0.000000000000e+00
          0.000000000000e+00 9.000000000000e-01 0.000000000000e+00
          1.000000000000e-01 9.000000000000e-01 0.000000000000e+00
          2.000000000000e-01 9.000000000000e-01 0.000000000000e+00
          3.000000000000e-01 9.000000000000e-01 0.000000000000e+00
          4.000000000000e-01 9.000000000000e-01 0.000000000000e+00
          5.000000000000e-01 9.000000000000e-01 0.000000000000e+00
          6.000000000000e-01 9.000000000000e-01 0.000000000000e+00
          7.000000000000e-01 9.000000000000e-01 0.000000000000e+00
          8.000000000000e-01 9.000000000000e-01 0.000000000000e+00
          9.000000000000e-01 9.000000000000e-01 0.000000000000e+00
          1.000000000000e+00 9.000000000000e-01 0.000000000000e+00
          0.000000000000e+00 1.000000000000e+00 0.000000000000e+00
          1.000000000000e-01 1.000000000000e+00 0.000000000000e+00
          2.000000000000e-01 1.000000000000e+00 0.000000000000e+00
          3.000000000000e-01 1.000000000000e+00 0.000000000000e+00
          4.000000000000e-01 1.000000000000e+00 0.000000000000e+00
          5.000000000000e-01 1.000000000000e+00 0.000000000000e+00
          6.000000000000e-01 1.000000000000e+00 0.000000000000e+00
          7.000000000000e-01 1.000000000000e+00 0.000000000000e+00
          8.000000000000e-01 1.000000000000e+00 0.000000000000e+00
          9.000000000000e-01 1.000000000000e+00 0.000000000000e+00
          1.000000000000e+00 1.000000000000e+00 0.000000000000e+00
        </DataArray>
      </Points>
      <Cells>
        <DataArray type="Int64" Name="connectivity" format="ascii">
          0 1 12 11 
          1 2 13 12 
          2 3 14 13 
          3 4 15 14 
          4 5 16 15 
          5 6 17 16 
          6 7 18 17 
          7 8 19 18 
          8 9 20 19 
          9 10 21 20 
          11 12 23 22 
          12 13 24 23 
          13 14 25 24 
          14 15 26 25 
          15 16 27 26 
          16 17 28 27 
          17 18 29 28 
          18 19 30 29 
          19 20 31 30 
          20 21 32 31 
          22 23 34 33 
          23 24 35 34 
          24 25 36 35 
          25 26 37 36 
          26 27 38 37 
          27 28 39 38 
          28 29 40 39 
          29 30 41 40 
          30 31 42 41 
          31 32 43 42 
          33 34 45 44 
          34 35 46 45 
          35 36 47 46 
          36 37 48 47 
          37 38 49 48 
          38 39 50 49 
          39 40 51 50 
          40 41 52 51 
          41 42 53 52 
          42 43 54 53 
          44 45 56 55 
          45 46 57 56 
          46 47 58 57 
          47 48 59 58 
          48 49 60 59 
          49 50 61 60 
          50 51 62 61 
          51 52 63 62 
          52 53 64 63 
          53 54 65 64 
          55 56 67 66 
          56 57 68 67 
          57 58 69 68 
          58 59 70 69 
          59 60 71 70 
          60 61 72 71 
          61 62 73 72 
          62 63 74 73 
          63 64 75 74 
          64 65 76 75 
          66 67 78 77 
          67 68 79 78 
          68 69 80 79 
          69 70 81 80 
          70 71 82 81 
          71 72 83 82 
          72 73 84 83 
          73 74 85 84 
          74 75 86 85 
          75 76 87 86 
          77 78 89 88 
          78 79 90 89 
          79 80 91 90 
          80 81 92 91 
          81 82 93 92 
          82 83 94 93 
          83 84 95 94 
          84 85 96 95 
          85 86 97 96 
          86 87 98 97 
          88 89 100 99 
          89 90 101 100 
          90 91 102 101 
          91 92 103 102 
          92 93 104 103 
          93 94 105 104 
          94 95 106 105 
          95 96 107 106 
          96 97 108 107 
          97 98 109 108 
          99 100 111 110 
          100 101 112 111 
          101 102 113 112 
          102 103 114 113 
          103 104 115 114 
          104 105 116 115 
          105 106 117 116 
          106 107 118 117 
          107 108 119 118 
          108 109 120 119 
        </DataArray>
        <DataArray type="Int64" Name="offsets" format="ascii">
          4 8 12 16 20 24 28 32 36 40 44 48 52 56 60 64 68 72 76 80 84 88 92 96 100 104 108 112 116 120 124 128 132 136 140 144 148 152 156 160 164 168 172 176 180 184 188 192 196 200 204 208 212 216 220 224 228 232 236 240 244 248 252 256 260 264 268 272 276 280 284 288 292 296 300 304 308 312 316 320 324 328 332 336 340 344 348 352 356 360 364 368 372 376 380 384 388 392 396 400 
        </DataArray>
        <DataArray type="UInt8" Name="types" format="ascii">
          9 9 9 9 9 9 9 9 9 9 9 9 9 9 9 9 9 9 9 9 9 9 9 9 9 9 9 9 9 9 9 9 9 9 9 9 9 9 9 9 9 9 9 9 9 9 9 9 9 9 9 9 9 9 9 9 9 9 9 9 9 9 9 9 9 9 9 9 9 9 9 9 9 9 9 9 9 9 9 9 9 9 9 9 9 9 9 9 9 9 9 9 9 9 9 9 9 9 9 9 
        </DataArray>
      </Cells>
      <PointData Scalars="PRESSURE1">
        <DataArray type="Float64" Name="PRESSURE1" format="ascii">
          1.254560208716e-03 1.137639363700e-03 1.014091644474e-03 8.888225881040e-04 7.627150609308e-04 6.361109299249e-04 5.091858449472e-04 3.820471259797e-04 2.547682712576e-04 1.274042787579e-04 0.000000000000e+00 1.264926791961e-03 1.139594029508e-03 1.014908631510e-03 8.892668028731e-04 7.629908860467e-04 6.362931299688e-04 5.093084314707e-04 3.821279735045e-04 2.548175213789e-04 1.274276121932e-04 0.000000000000e+00 1.269776695957e-03 1.142917661857e-03 1.016648118168e-03 8.903104358590e-04 7.636691206024e-04 6.367513845368e-04 5.096203099516e-04 3.823348686403e-04 2.549439258503e-04 1.274875802087e-04 0.000000000000e+00 1.273087266384e-03 1.145705003836e-03 1.018660902956e-03 8.916909208940e-04 7.646269643934e-04 6.374204112487e-04 5.100834557602e-04 3.826447968275e-04 2.551341051961e-04 1.275779848390e-04 0.000000000000e+00 1.275776329794e-03 1.148138284368e-03 1.020644889245e-03 8.932030692150e-04 7.657398829021e-04 6.382225492972e-04 5.106478986413e-04 3.830256855386e-04 2.553688073343e-04 1.276897688336e-04 0.000000000000e+00 1.278233387134e-03 1.150417522957e-03 1.022586949141e-03 8.947503205120e-04 7.669149821450e-04 6.390847333206e-04 5.112603293787e-04 3.834409570435e-04 2.556253137773e-04 1.278120731592e-04 0.000000000000e+00 1.280712848717e-03 1.152712453825e-03 1.024534416112e-03 8.962950490891e-04 7.680841105376e-04 6.399407031185e-04 5.118676455806e-04 3.838525152620e-04 2.558794507914e-04 1.279332311163e-04 0.000000000000e+00 1.283480181727e-03 1.155196492799e-03 1.026530535918e-03 8.977940715084e-04 7.691760017295e-04 6.407231994671e-04 5.124166105142e-04 3.842223863896e-04 2.561071875940e-04 1.280416590720e-04 0.000000000000e+00 1.286973404896e-03 1.158078755790e-03 1.028539191546e-03 8.991307477591e-04 7.700904885358e-04 6.413573672825e-04 5.128540144899e-04 3.845145409691e-04 2.562862930548e-04 1.281267629585e-04 0.000000000000e+00 1.292292283461e-03 1.161519461224e-03 1.030153522827e-03 9.000774379311e-04 7.706986057676e-04 6.417659878626e-04 5.131313436586e-04 3.846982587527e-04 2.563984586012e-04 1.281799587087e-04 0.000000000000e+00 1.304614354960e-03 1.162643294317e-03 1.030712692859e-03 9.003772515744e-04 7.708849449952e-04 6.418890698561e-04 5.132141550610e-04 3.847528740200e-04 2.564317287425e-04 1.281957212421e-04 0.000000000000e+00 
        </DataArray>
        <DataArray type="Float64" Name="TEMPERATURE1" format="ascii">
          5.231500000000e+02 4.708349999997e+02 4.185199999995e+02 3.662049999993e+02 3.138899999992e+02 2.615749999992e+02 2.092599999992e+02 1.569449999993e+02 1.046299999995e+02 5.231499999975e+01 0.000000000000e+00 5.231500000000e+02 4.708349999997e+02 4.185199999995e+02 3.662049999993e+02 3.138899999992e+02 2.615749999992e+02 2.092599999992e+02 1.569449999993e+02 1.046299999995e+02 5.231499999975e+01 0.000000000000e+00 5.231500000000e+02 4.708349999997e+02 4.185199999995e+02 3.662049999993e+02 3.138899999992e+02 2.615749999992e+02 2.092599999992e+02 1.569449999993e+02 1.046299999995e+02 5.231499999975e+01 0.000000000000e+00 5.231500000000e+02 4.708349999997e+02 4.185199999995e+02 3.662049999993e+02 3.138899999992e+02 2.615749999992e+02 2.092599999992e+02 1.569449999993e+02 1.046299999995e+02 5.231499999975e+01 0.000000000000e+00 5.231500000000e+02 4.708349999997e+02 4.185199999995e+02 3.662049999993e+02 3.138899999992e+02 2.615749999992e+02 2.092599999992e+02 1.569449999993e+02 1.046299999995e+02 5.231499999975e+01 0.000000000000e+00 5.231500000000e+02 4.708349999997e+02 4.185199999995e+02 3.662049999993e+02 3.138899999992e+02 2.615749999992e+02 2.092599999992e+02 1.569449999993e+02 1.046299999995e+02 5.231499999975e+01 0.000000000000e+00 5.231500000000e+02 4.708349999998e+02 4.185199999995e+02 3.662049999993e+02 3.138899999992e+02 2.615749999992e+02 2.092599999992e+02 1.569449999993e+02 1.046299999995e+02 5.231499999975e+01 0.000000000000e+00 5.231500000000e+02 4.708349999998e+02 4.185199999995e+02 3.662049999993e+02 3.138899999992e+02 2.615749999992e+02 2.092599999992e+02 1.569449999993e+02 1.046299999995e+02 5.231499999975e+01 0.000000000000e+00 5.231500000000e+02 4.708349999998e+02 4.185199999995e+02 3.662049999993e+02 3.138899999992e+02 2.615749999992e+02 2.092599999992e+02 1.569449999993e+02 1.046299999995e+02 5.231499999975e+01 0.000000000000e+00 5.231500000000e+02 4.708349999998e+02 4.185199999995e+02 3.662049999993e+02 3.138899999992e+02 2.615749999992e+02 2.092599999992e+02 1.569449999993e+02 1.046299999995e+02 5.231499999975e+01 0.000000000000e+00 5.231500000000e+02 4.708349999998e+02 4.185199999995e+02 3.662049999993e+02 3.138899999992e+02 2.615749999992e+02 2.092599999992e+02 1.569449999993e+02 1.046299999995e+02 5.231499999975e+01 0.000000000000e+00 
        </DataArray>
        <DataArray type="Float64" Name="STRESS_XX" format="ascii">
          -2.913325245285e-02 -2.858101909001e-02 -2.675585187694e-02 -2.383204521502e-02 -2.007392627957e-02 -1.579670843877e-02 -1.134066791585e-02 -7.064385799684e-03 -3.361053023326e-03 -6.936236071195e-04 2.665822204538e-04 -2.869134081958e-02 -2.814465999321e-02 -2.632203428664e-02 -2.341162343452e-02 -1.968601547477e-02 -1.546483588071e-02 -1.108613046931e-02 -6.899080537399e-03 -3.281282702362e-03 -6.766903638060e-04 2.606575853239e-04 -2.731784109977e-02 -2.677162531185e-02 -2.495700706643e-02 -2.208835457745e-02 -1.846535412633e-02 -1.442059736301e-02 -1.028447931720e-02 -6.377078718843e-03 -3.028305744908e-03 -6.230178181429e-04 2.417472244759e-04 -2.481250411625e-02 -2.426318263256e-02 -2.246037911191e-02 -1.966916120894e-02 -1.623721805629e-02 -1.251678415989e-02 -8.821151846007e-03 -5.418811114896e-03 -2.558219774734e-03 -5.206926586394e-04 2.065528273783e-04 -2.082199338444e-02 -2.026511116282e-02 -1.848079901650e-02 -1.582382701866e-02 -1.271434849662e-02 -9.521859640163e-03 -6.522095497867e-03 -3.904734926225e-03 -1.804019322693e-03 -3.511087076375e-04 1.499420890006e-04 -1.479618946227e-02 -1.422588380033e-02 -1.248133293852e-02 -1.007239046931e-02 -7.511237958770e-03 -5.153470954126e-03 -3.192056594368e-03 -1.704849915253e-03 -6.896786630772e-04 -9.088251146745e-05 6.605408884460e-05 -5.896319955769e-03 -5.306966754544e-03 -3.673075092495e-03 -1.772611548315e-03 -1.874479172279e-04 8.455454052389e-04 1.304243359488e-03 1.257828762921e-03 8.376389979218e-04 2.826987211756e-04 -4.924646929791e-05 7.205568866078e-03 7.812256920322e-03 9.104031602619e-03 9.862689261835e-03 9.637046498102e-03 8.556423036070e-03 6.892379106225e-03 4.883012976744e-03 2.735759927594e-03 7.777191343680e-04 -1.922882970736e-04 2.681387190969e-02 2.739504689653e-02 2.753836436990e-02 2.558477357916e-02 2.201074353870e-02 1.763667963005e-02 1.306041793941e-02 8.671030487704e-03 4.695909772162e-03 1.341618790350e-03 -3.335241755688e-04 5.753431540592e-02 5.800028078716e-02 5.351761735174e-02 4.535187770729e-02 3.615952897312e-02 2.703427104091e-02 1.862010695558e-02 1.138811722035e-02 5.695375802251e-03 1.634128144990e-03 -3.485939902320e-04 1.219422656270e-01 1.053494794314e-01 8.510436767137e-02 6.676934527205e-02 4.999352165399e-02 3.488548631286e-02 2.167835354917e-02 1.080007447343e-02 2.990546124140e-03 -5.519730800560e-04 -2.297803439414e-04 
        </DataArray>
        <DataArray type="Float64" Name="STRESS_XY" format="ascii">
          8.545055473340e-08 -1.134142635944e-06 -2.709428348724e-06 -4.297106804984e-06 -5.930935667513e-06 -7.451236252196e-06 -8.678967288191e-06 -9.456964779483e-06 -9.726206192380e-06 -1.092770500383e-05 2.454523666024e-05 -3.555579407438e-06 -1.324252638122e-03 -2.523972718814e-03 -3.495006562022e-03 -4.170053371988e-03 -4.514645821008e-03 -4.511772464124e-03 -4.139604389059e-03 -3.348399179999e-03 -2.042732776255e-03 -7.043932040621e-05 -7.827251714397e-06 -2.649394600897e-03 -5.034967464652e-03 -6.945441691228e-03 -8.250341012510e-03 -8.892133007691e-03 -8.850993582952e-03 -8.096874727610e-03 -6.540571871961e-03 -3.993959569089e-03 -1.404230561338e-04 -1.288065006254e-05 -3.975042294972e-03 -7.518068214480e-03 -1.029908077178e-02 -1.213659507518e-02 -1.297562249986e-02 -1.282240221953e-02 -1.166522862604e-02 -9.396654384776e-03 -5.744840279063e-03 -2.085623145520e-04 -1.969142819799e-05 -5.303900813697e-03 -9.952674154361e-03 -1.348267348898e-02 -1.568914882404e-02 -1.656514039655e-02 -1.618558732810e-02 -1.459279598197e-02 -1.169281995199e-02 -7.152365031451e-03 -2.707142762360e-04 -2.993552332300e-05 -6.639231880760e-03 -1.229885438907e-02 -1.637164882359e-02 -1.869526743802e-02 -1.938510203546e-02 -1.863388927391e-02 -1.657024939422e-02 -1.315087761079e-02 -8.027930842682e-03 -3.182500170284e-04 -4.732603674087e-05 -7.978810694642e-03 -1.445838346394e-02 -1.871976217511e-02 -2.079712971226e-02 -2.103612268211e-02 -1.977770519369e-02 -1.723774622402e-02 -1.345017673854e-02 -8.137472698063e-03 -3.351163424629e-04 -8.160774636511e-05 -9.295280480361e-03 -1.616591590844e-02 -1.999985616613e-02 -2.136275441360e-02 -2.092825465540e-02 -1.913782986726e-02 -1.622517707777e-02 -1.228455558952e-02 -7.228983575914e-03 -2.922791458842e-04 -1.653999854148e-04 -1.046317830464e-02 -1.665890577828e-02 -1.907038909603e-02 -1.930524001888e-02 -1.821532171299e-02 -1.615192463046e-02 -1.322788464848e-02 -9.498889841587e-03 -5.131645437344e-03 -1.342089749505e-04 -5.215106454189e-04 -1.090875793586e-02 -1.354933648566e-02 -1.370449205434e-02 -1.299652772495e-02 -1.180127531691e-02 -1.017619902697e-02 -8.045472885990e-03 -5.301743982089e-03 -2.090600399151e-03 2.464024827344e-04 -2.229258532624e-03 -2.309820028937e-03 -1.185595193732e-03 -8.071460274809e-04 -6.148662537305e-04 -4.937502103372e-04 -3.982712424091e-04 -2.912372068345e-04 -1.136739380096e-04 2.548309731385e-04 3.149266688851e-04 
        </DataArray>
        <DataArray type="Float64" Name="STRESS_YY" format="ascii">
          -6.707796553882e-02 -4.691054387782e-02 -3.013448492972e-02 -1.638923215224e-02 -5.124022081330e-03 4.351674772326e-03 1.282720341643e-02 2.117383074357e-02 3.035872089547e-02 4.148817026062e-02 5.587454578982e-02 -6.639647408426e-02 -4.626669626925e-02 -2.958181842061e-02 -1.596953281411e-02 -4.862389679292e-03 4.442921083981e-03 1.273905090805e-02 2.088905261758e-02 2.984141885688e-02 4.067783921619e-02 5.468906461288e-02 -6.437616530018e-02 -4.434564526587e-02 -2.793907089644e-02 -1.473350756028e-02 -4.104734216475e-03 4.691734480443e-03 1.245910933210e-02 2.003485591860e-02 2.830875295356e-02 3.828309983241e-02 5.117590104730e-02 -6.100993525480e-02 -4.115669708035e-02 -2.524161718265e-02 -1.274267532018e-02 -2.925338177686e-03 5.031586046074e-03 1.194999884261e-02 1.862156417202e-02 2.583029628218e-02 3.442914592557e-02 4.548412112483e-02 -5.628907008023e-02 -3.671354966701e-02 -2.155544978446e-02 -1.011140257857e-02 -1.458148803234e-03 5.345779265179e-03 1.114667549766e-02 1.666554180227e-02 2.252617188722e-02 2.934174525971e-02 3.790048055692e-02 -5.019561494779e-02 -3.104058759149e-02 -1.699640046645e-02 -7.029006130219e-03 9.035877511839e-05 5.465825818938e-03 9.959574759831e-03 1.419117993654e-02 1.857105623855e-02 2.336824351851e-02 2.890609463914e-02 -4.269702406763e-02 -2.418781541961e-02 -1.177401834403e-02 -3.798623301318e-03 1.432317414512e-03 5.187978199660e-03 8.296950142809e-03 1.124229366151e-02 1.419506959380e-02 1.699497327158e-02 1.925006263621e-02 -3.373851600133e-02 -1.627778468191e-02 -6.294544656426e-03 -8.955177314617e-04 2.218005033465e-03 4.335928010683e-03 6.129551998215e-03 7.917002417736e-03 9.676754021454e-03 1.083962260713e-02 1.002921547949e-02 -2.321603650407e-02 -7.656932464008e-03 -1.408180031801e-03 1.001433142408e-03 2.150602656665e-03 2.905214099057e-03 3.621604842010e-03 4.455125455967e-03 5.335289652816e-03 5.569956186908e-03 2.750976729662e-03 -1.046487650721e-02 2.208207280380e-04 1.182376825454e-03 1.311794335724e-03 1.299207674034e-03 1.280107385741e-03 1.308799771012e-03 1.421569119390e-03 1.617327416451e-03 1.640259797508e-03 -6.673617583245e-04 2.592960308949e-03 2.110938022804e-03 1.203662062171e-03 8.718734359067e-04 6.536708534470e-04 4.634586397517e-04 2.732496271445e-04 7.206569771932e-05 -1.284169567843e-04 -2.272355973862e-04 -2.306113049347e-04 
        </DataArray>
        <DataArray type="Float64" Name="STRESS_ZZ" format="ascii">
          -1.826694653975e-01 -1.610729588903e-01 -1.401119810419e-01 -1.197306532100e-01 -9.984304450804e-02 -8.033656009970e-02 -6.107647934960e-02 -4.190899651664e-02 -2.266191963822e-02 -3.142246003875e-03 1.684233840308e-02 -1.823324444712e-01 -1.607488968787e-01 -1.398160358120e-01 -1.194786168744e-01 -9.964818154599e-02 -8.020962443878e-02 -6.102656386815e-02 -4.194483837575e-02 -2.279317915351e-02 -3.380265344212e-03 1.648491665946e-02 -1.813143019200e-01 -1.597606711732e-01 -1.389137033887e-01 -1.187108286411e-01 -9.905468650261e-02 -7.982170886453e-02 -6.087005099530e-02 -4.204449683988e-02 -2.317708583726e-02 -4.082585395646e-03 1.542529448153e-02 -1.795528318113e-01 -1.580514539138e-01 -1.373554788882e-01 -1.173878209585e-01 -9.803242686997e-02 -7.914860943391e-02 -6.058378590079e-02 -4.218100408267e-02 -2.377959704763e-02 -5.208074019848e-03 1.370720218566e-02 -1.769394190394e-01 -1.555190882489e-01 -1.350557546401e-01 -1.154448388790e-01 -9.653540918973e-02 -7.815587411226e-02 -6.013506599984e-02 -4.231358793699e-02 -2.454457423050e-02 -6.683419034304e-03 1.141512679378e-02 -1.733036413230e-01 -1.520054314175e-01 -1.318882000214e-01 -1.127946889797e-01 -9.450992375487e-02 -7.680934354032e-02 -5.949218455013e-02 -4.239593099342e-02 -2.539680672722e-02 -8.397401697814e-03 8.691644618394e-03 -1.683841032070e-01 -1.472739246522e-01 -1.276790080308e-01 -1.093356404547e-01 -9.191019915059e-02 -7.509299291829e-02 -5.864208194908e-02 -4.239179327248e-02 -2.625140742234e-02 -1.019730840210e-02 5.760244850073e-03 -1.617659841406e-01 -1.409651483284e-01 -1.222020339160e-01 -1.049741185407e-01 -8.872714454030e-02 -7.303534468574e-02 -5.761586066844e-02 -4.230182538146e-02 -2.703746581515e-02 -1.189540747748e-02 2.951078154725e-03 -1.527267493783e-01 -1.325040556702e-01 -1.152058246984e-01 -9.968840798334e-02 -8.503525614116e-02 -7.074048188103e-02 -5.651783316535e-02 -4.220398321671e-02 -2.775186017237e-02 -1.330713750675e-02 7.252357662281e-04 -1.396852683304e-01 -1.209591595454e-01 -1.066348817467e-01 -9.366516838690e-02 -8.104603900563e-02 -6.840873647177e-02 -5.554376798180e-02 -4.229892409789e-02 -2.856740903425e-02 -1.439829361718e-02 -3.047867245669e-04 -1.164455322192e-01 -1.061873647637e-01 -9.715247107980e-02 -8.737190438742e-02 -7.708950224754e-02 -6.629836651398e-02 -5.493695904688e-02 -4.288018794846e-02 -2.990258124965e-02 -1.561437260316e-02 -1.381174946628e-04 
        </DataArray>
        <DataArray type="Float64" Name="STRAIN_XX" format="ascii">
          9.504622706097e-03 8.201881987635e-03 7.017284186399e-03 5.936580494927e-03 4.938088271286e-03 3.995324150438e-03 3.078883564947e-03 2.157047330097e-03 1.194815552350e-03 1.515813864658e-04 -1.026118239877e-03 9.511115940335e-03 8.208833711957e-03 7.025819142048e-03 5.947004355802e-03 4.950038852028e-03 4.008010720262e-03 3.091550638976e-03 2.169499294755e-03 1.207879304118e-03 1.673641654537e-04 -1.004358895066e-03 9.533114241251e-03 8.232655219991e-03 7.054462153285e-03 5.981391251561e-03 4.988863432818e-03 4.048640235808e-03 3.131487770549e-03 2.207983026540e-03 1.247305434289e-03 2.141637071788e-04 -9.399338778178e-04 9.579163143028e-03 8.282131079315e-03 7.112553795677e-03 6.049250365452e-03 5.063512926561e-03 4.124827278868e-03 3.204353536725e-03 2.275754802767e-03 1.313704307369e-03 2.901712271224e-04 -8.357544840844e-04 9.664412064355e-03 8.372865248185e-03 7.216544871940e-03 6.167015019925e-03 5.188922804812e-03 4.248772324463e-03 3.318898173931e-03 2.377690900667e-03 1.407748637150e-03 3.920001630794e-04 -6.973685769624e-04 9.812366067570e-03 8.529210090585e-03 7.391853676556e-03 6.358999431593e-03 5.385632930235e-03 4.435839731526e-03 3.485246016309e-03 2.518971685791e-03 1.529488880161e-03 5.142130924881e-04 -5.339651280197e-04 1.005876753460e-02 8.788430726996e-03 7.676557753325e-03 6.658663694205e-03 5.678075076351e-03 4.700957134314e-03 3.710962995293e-03 2.702119459334e-03 1.676940968874e-03 6.487623457265e-04 -3.596351769135e-04 1.046014375755e-02 9.210029848731e-03 8.128470722581e-03 7.108945244919e-03 6.089211826187e-03 5.050918954207e-03 3.993367224146e-03 2.920966184080e-03 1.843104450741e-03 7.845268854951e-04 -1.945893517780e-04 1.111441941307e-02 9.898515873177e-03 8.836545037564e-03 7.755006477678e-03 6.626657123039e-03 5.470967141162e-03 4.307225068390e-03 3.149405610273e-03 2.008671472757e-03 9.068277707728e-04 -6.554228211124e-05 1.220883137415e-02 1.107844154439e-02 9.914202325142e-03 8.605817139164e-03 7.255582779637e-03 5.908376655547e-03 4.591097019933e-03 3.323483510176e-03 2.121029537498e-03 9.924832519437e-04 -2.711878350696e-06 1.475733986667e-02 1.309513797398e-02 1.128256620841e-02 9.542077359872e-03 7.867044336761e-03 6.263762317852e-03 4.742852684517e-03 3.323063864212e-03 2.036241218378e-03 9.324342561921e-04 -5.674366860104e-06 
        </DataArray>
        <DataArray type="Float64" Name="STRAIN_XY" format="ascii">
          1.057959249080e-08 -1.404176596883e-07 -3.354530336516e-07 -5.320227472837e-07 -7.343063207397e-07 -9.225340121766e-07 -1.074538807109e-06 -1.170862306031e-06 -1.204196957152e-06 -1.352953952855e-06 3.038934062697e-06 -4.402145933019e-07 -1.639550885294e-04 -3.124918604247e-04 -4.327150981551e-04 -5.162923222461e-04 -5.589561492676e-04 -5.586004003201e-04 -5.125224481691e-04 -4.145637079998e-04 -2.529097722982e-04 -8.721058716959e-06 -9.690883074967e-07 -3.280202839206e-04 -6.233769241950e-04 -8.599118284377e-04 -1.021470792025e-03 -1.100930753333e-03 -1.095837300746e-03 -1.002470204371e-03 -8.097850889094e-04 -4.944902323634e-04 -1.738571171180e-05 -1.594747150600e-06 -4.921480936632e-04 -9.308084456022e-04 -1.275124286030e-03 -1.502626056927e-03 -1.606505642840e-03 -1.587535512894e-03 -1.444266401319e-03 -1.163395304782e-03 -7.112659393126e-04 -2.582200084929e-05 -2.437986348323e-06 -6.566734340768e-04 -1.232235847683e-03 -1.669283384349e-03 -1.942466044881e-03 -2.050922144334e-03 -2.003929859670e-03 -1.806727121577e-03 -1.447682470247e-03 -8.855309086558e-04 -3.351700562921e-05 -3.706302887609e-06 -8.220001376179e-04 -1.522715305314e-03 -2.026966044825e-03 -2.314652158993e-03 -2.400060252009e-03 -2.307052957722e-03 -2.051554686903e-03 -1.628203894669e-03 -9.939342948082e-04 -3.940238306066e-05 -5.859414072679e-06 -9.878527526700e-04 -1.790085571726e-03 -2.317684840728e-03 -2.574882726280e-03 -2.604472332071e-03 -2.448668262076e-03 -2.134197151545e-03 -1.665259977152e-03 -1.007496619760e-03 -4.149059478112e-05 -1.010381621663e-05 -1.150844249949e-03 -2.001494350569e-03 -2.476172668187e-03 -2.644912451208e-03 -2.591117243050e-03 -2.369445602613e-03 -2.008831447724e-03 -1.520944977751e-03 -8.950170141608e-04 -3.618694187138e-05 -2.047809343231e-05 -1.295441123431e-03 -2.062531191596e-03 -2.361095792842e-03 -2.390172573766e-03 -2.255230307323e-03 -1.999762097104e-03 -1.637738099336e-03 -1.176053028006e-03 -6.353465779569e-04 -1.661634927959e-05 -6.456798467091e-05 -1.350608125392e-03 -1.677536898224e-03 -1.696746635300e-03 -1.609093908803e-03 -1.461110277331e-03 -1.259910355720e-03 -9.961061668368e-04 -6.564063977824e-04 -2.588362398949e-04 3.050697405283e-05 -2.760034373725e-04 -2.859777178684e-04 -1.467879763668e-04 -9.993236530716e-05 -7.612629808092e-05 -6.113097842270e-05 -4.930977286970e-05 -3.605793989380e-05 -1.407391613452e-05 3.155050143619e-05 3.899092090959e-05 
        </DataArray>
        <DataArray type="Float64" Name="STRAIN_YY" format="ascii">
          7.155664276966e-03 7.067197119819e-03 6.808130711704e-03 6.397326065479e-03 5.863558531178e-03 5.242605015887e-03 4.574989885516e-03 3.905127401823e-03 3.282230128276e-03 2.762835292564e-03 2.416279504893e-03 7.176988642998e-03 7.086993371059e-03 6.824022981374e-03 6.407705203732e-03 5.867691877462e-03 5.240395675218e-03 4.566442819479e-03 3.889717061492e-03 3.258332257786e-03 2.727406472787e-03 2.365018682830e-03 7.239027505035e-03 7.144739699028e-03 6.869858201903e-03 6.436691305005e-03 5.877854189142e-03 5.231784588022e-03 4.539424210744e-03 3.843007551715e-03 3.187218591813e-03 2.622637656975e-03 2.213132787405e-03 7.338369786832e-03 7.236342089690e-03 6.940381915107e-03 6.478032825232e-03 5.887581680951e-03 5.211154958284e-03 4.490186674592e-03 3.763968511005e-03 3.071088634702e-03 2.453732663288e-03 1.967142600996e-03 7.468831126044e-03 7.354628578877e-03 7.026209348209e-03 6.520641294787e-03 5.885735166783e-03 5.169149970984e-03 4.412679235559e-03 3.651088983859e-03 2.913903331097e-03 2.230129218201e-03 1.639569518671e-03 7.620973061324e-03 7.488299855894e-03 7.112349496256e-03 6.547399414490e-03 5.856207966142e-03 5.093224769859e-03 4.299394623950e-03 3.503011628998e-03 2.721820088357e-03 1.966444703868e-03 1.251370715570e-03 7.780628708629e-03 7.619616285825e-03 7.175070790134e-03 6.533243919019e-03 5.778346263554e-03 4.969774402540e-03 4.143844843784e-03 3.320205381628e-03 2.503829529571e-03 1.683331722657e-03 8.350839581893e-04 7.925509932430e-03 7.718741559068e-03 7.175225525593e-03 6.442961002476e-03 5.629937830757e-03 4.789650214540e-03 3.946144593650e-03 3.108784578046e-03 2.272785037504e-03 1.407406624285e-03 4.381704058188e-04 8.017329844596e-03 7.728631436572e-03 7.044616098410e-03 6.233180641118e-03 5.397219830342e-03 4.559019274958e-03 3.722917590932e-03 2.888421013070e-03 2.048252132035e-03 1.168581990560e-03 1.254030120221e-04 7.999357589054e-03 7.501617826449e-03 6.674401721133e-03 5.879526263782e-03 5.097562889693e-03 4.314071286417e-03 3.519444670412e-03 2.706506722974e-03 1.868578923139e-03 9.928628304329e-04 -2.244512113737e-05 7.369049537458e-03 6.704180648686e-03 6.088713004027e-03 5.462710055730e-03 4.812672620537e-03 4.132874890469e-03 3.417774822678e-03 2.658949035240e-03 1.843162551463e-03 9.525370527383e-04 -5.725807302544e-06 
        </DataArray>
        <DataArray type="Float64" Name="STRAIN_ZZ" format="ascii">
          0.000000000000e+00 0.000000000000e+00 0.000000000000e+00 0.000000000000e+00 0.000000000000e+00 0.000000000000e+00 0.000000000000e+00 0.000000000000e+00 0.000000000000e+00 0.000000000000e+00 0.000000000000e+00 0.000000000000e+00 0.000000000000e+00 0.000000000000e+00 0.000000000000e+00 0.000000000000e+00 0.000000000000e+00 0.000000000000e+00 0.000000000000e+00 0.000000000000e+00 0.000000000000e+00 0.000000000000e+00 0.000000000000e+00 0.000000000000e+00 0.000000000000e+00 0.000000000000e+00 0.000000000000e+00 0.000000000000e+00 0.000000000000e+00 0.000000000000e+00 0.000000000000e+00 0.000000000000e+00 0.000000000000e+00 0.000000000000e+00 0.000000000000e+00 0.000000000000e+00 0.000000000000e+00 0.000000000000e+00 0.000000000000e+00 0.000000000000e+00 0.000000000000e+00 0.000000000000e+00 0.000000000000e+00 0.000000000000e+00 0.000000000000e+00 0.000000000000e+00 0.000000000000e+00 0.000000000000e+00 0.000000000000e+00 0.000000000000e+00 0.000000000000e+00 0.000000000000e+00 0.000000000000e+00 0.000000000000e+00 0.000000000000e+00 0.000000000000e+00 0.000000000000e+00 0.000000000000e+00 0.000000000000e+00 0.000000000000e+00 0.000000000000e+00 0.000000000000e+00 0.000000000000e+00 0.000000000000e+00 0.000000000000e+00 0.000000000000e+00 0.000000000000e+00 0.000000000000e+00 0.000000000000e+00 0.000000000000e+00 0.000000000000e+00 0.000000000000e+00 0.000000000000e+00 0.000000000000e+00 0.000000000000e+00 0.000000000000e+00 0.000000000000e+00 0.000000000000e+00 0.000000000000e+00 0.000000000000e+00 0.000000000000e+00 0.000000000000e+00 0.000000000000e+00 0.000000000000e+00 0.000000000000e+00 0.000000000000e+00 0.000000000000e+00 0.000000000000e+00 0.000000000000e+00 0.000000000000e+00 0.000000000000e+00 0.000000000000e+00 0.000000000000e+00 0.000000000000e+00 0.000000000000e+00 0.000000000000e+00 0.000000000000e+00 0.000000000000e+00 0.000000000000e+00 0.000000000000e+00 0.000000000000e+00 0.000000000000e+00 0.000000000000e+00 0.000000000000e+00 0.000000000000e+00 0.000000000000e+00 0.000000000000e+00 0.000000000000e+00 0.000000000000e+00 0.000000000000e+00 0.000000000000e+00 0.000000000000e+00 0.000000000000e+00 0.000000000000e+00 0.000000000000e+00 0.000000000000e+00 0.000000000000e+00 0.000000000000e+00 0.000000000000e+00 0.000000000000e+00 0.000000000000e+00 
        </DataArray>
        <DataArray type="Float64" Name="STRAIN_PLS" format="ascii">
          0.000000000000e+00 0.000000000000e+00 0.000000000000e+00 0.000000000000e+00 0.000000000000e+00 0.000000000000e+00 0.000000000000e+00 0.000000000000e+00 0.000000000000e+00 0.000000000000e+00 0.000000000000e+00 0.000000000000e+00 0.000000000000e+00 0.000000000000e+00 0.000000000000e+00 0.000000000000e+00 0.000000000000e+00 0.000000000000e+00 0.000000000000e+00 0.000000000000e+00 0.000000000000e+00 0.000000000000e+00 0.000000000000e+00 0.000000000000e+00 0.000000000000e+00 0.000000000000e+00 0.000000000000e+00 0.000000000000e+00 0.000000000000e+00 0.000000000000e+00 0.000000000000e+00 0.000000000000e+00 0.000000000000e+00 0.000000000000e+00 0.000000000000e+00 0.000000000000e+00 0.000000000000e+00 0.000000000000e+00 0.000000000000e+00 0.000000000000e+00 0.000000000000e+00 0.000000000000e+00 0.000000000000e+00 0.000000000000e+00 0.000000000000e+00 0.000000000000e+00 0.000000000000e+00 0.000000000000e+00 0.000000000000e+00 0.000000000000e+00 0.000000000000e+00 0.000000000000e+00 0.000000000000e+00 0.000000000000e+00 0.000000000000e+00 0.000000000000e+00 0.000000000000e+00 0.000000000000e+00 0.000000000000e+00 0.000000000000e+00 0.000000000000e+00 0.000000000000e+00 0.000000000000e+00 0.000000000000e+00 0.000000000000e+00 0.000000000000e+00 0.000000000000e+00 0.000000000000e+00 0.000000000000e+00 0.000000000000e+00 0.000000000000e+00 0.000000000000e+00 0.000000000000e+00 0.000000000000e+00 0.000000000000e+00 0.000000000000e+00 0.000000000000e+00 0.000000000000e+00 0.000000000000e+00 0.000000000000e+00 0.000000000000e+00 0.000000000000e+00 0.000000000000e+00 0.000000000000e+00 0.000000000000e+00 0.000000000000e+00 0.000000000000e+00 0.000000000000e+00 0.000000000000e+00 0.000000000000e+00 0.000000000000e+00 0.000000000000e+00 0.000000000000e+00 0.000000000000e+00 0.000000000000e+00 0.000000000000e+00 0.000000000000e+00 0.000000000000e+00 0.000000000000e+00 0.000000000000e+00 0.000000000000e+00 0.000000000000e+00 0.000000000000e+00 0.000000000000e+00 0.000000000000e+00 0.000000000000e+00 0.000000000000e+00 0.000000000000e+00 0.000000000000e+00 0.000000000000e+00 0.000000000000e+00 0.000000000000e+00 0.000000000000e+00 0.000000000000e+00 0.000000000000e+00 0.000000000000e+00 0.000000000000e+00 0.000000000000e+00 0.000000000000e+00 0.000000000000e+00 0.000000000000e+00 
        </DataArray>
        <DataArray type="Float64" Name="DILATANCY" format="ascii">
          0.000000000000e+00 0.000000000000e+00 0.000000000000e+00 0.000000000000e+00 0.000000000000e+00 0.000000000000e+00 0.000000000000e+00 0.000000000000e+00 0.000000000000e+00 0.000000000000e+00 0.000000000000e+00 0.000000000000e+00 0.000000000000e+00 0.000000000000e+00 0.000000000000e+00 0.000000000000e+00 0.000000000000e+00 0.000000000000e+00 0.000000000000e+00 0.000000000000e+00 0.000000000000e+00 0.000000000000e+00 0.000000000000e+00 0.000000000000e+00 0.000000000000e+00 0.000000000000e+00 0.000000000000e+00 0.000000000000e+00 0.000000000000e+00 0.000000000000e+00 0.000000000000e+00 0.000000000000e+00 0.000000000000e+00 0.000000000000e+00 0.000000000000e+00 0.000000000000e+00 0.000000000000e+00 0.000000000000e+00 0.000000000000e+00 0.000000000000e+00 0.000000000000e+00 0.000000000000e+00 0.000000000000e+00 0.000000000000e+00 0.000000000000e+00 0.000000000000e+00 0.000000000000e+00 0.000000000000e+00 0.000000000000e+00 0.000000000000e+00 0.000000000000e+00 0.000000000000e+00 0.000000000000e+00 0.000000000000e+00 0.000000000000e+00 0.000000000000e+00 0.000000000000e+00 0.000000000000e+00 0.000000000000e+00 0.000000000000e+00 0.000000000000e+00 0.000000000000e+00 0.000000000000e+00 0.000000000000e+00 0.000000000000e+00 0.000000000000e+00 0.000000000000e+00 0.000000000000e+00 0.000000000000e+00 0.000000000000e+00 0.000000000000e+00 0.000000000000e+00 0.000000000000e+00 0.000000000000e+00 0.000000000000e+00 0.000000000000e+00 0.000000000000e+00 0.000000000000e+00 0.000000000000e+00 0.000000000000e+00 0.000000000000e+00 0.000000000000e+00 0.000000000000e+00 0.000000000000e+00 0.000000000000e+00 0.000000000000e+00 0.000000000000e+00 0.000000000000e+00 0.000000000000e+00 0.000000000000e+00 0.000000000000e+00 0.000000000000e+00 0.000000000000e+00 0.000000000000e+00 0.000000000000e+00 0.000000000000e+00 0.000000000000e+00 0.000000000000e+00 0.000000000000e+00 0.000000000000e+00 0.000000000000e+00 0.000000000000e+00 0.000000000000e+00 0.000000000000e+00 0.000000000000e+00 0.000000000000e+00 0.000000000000e+00 0.000000000000e+00 0.000000000000e+00 0.000000000000e+00 0.000000000000e+00 0.000000000000e+00 0.000000000000e+00 0.000000000000e+00 0.000000000000e+00 0.000000000000e+00 0.000000000000e+00 0.000000000000e+00 0.000000000000e+00 0.000000000000e+00 0.000000000000e+00 
        </DataArray>
        <DataArray type="Float64" Name="NODAL_VELOCITY1" NumberOfComponents="3" format="ascii">
          8.840532057824e-01 -7.028221759168e-02 0.000000000000e+00 9.917022524303e-01 -5.013662922910e-02 0.000000000000e+00 9.799448246080e-01 -1.096396942312e-02 0.000000000000e+00 9.855160473305e-01 -4.943902850087e-03 0.000000000000e+00 9.895889167713e-01 -2.810097318709e-03 0.000000000000e+00 9.923788701477e-01 -1.783224170166e-03 0.000000000000e+00 9.942888811028e-01 -1.184437869056e-03 0.000000000000e+00 9.955789452718e-01 -7.887797556648e-04 0.000000000000e+00 9.964068226841e-01 -5.023073347222e-04 0.000000000000e+00 9.968664769802e-01 -2.771557202692e-04 0.000000000000e+00 9.971975410711e-01 -1.973569529628e-04 0.000000000000e+00 9.758970899454e-01 -6.121362360493e-02 0.000000000000e+00 9.572220463558e-01 -2.625643525401e-02 0.000000000000e+00 9.804108888988e-01 -1.355285720647e-02 0.000000000000e+00 9.863598633135e-01 -7.321442055575e-03 0.000000000000e+00 9.901793896687e-01 -4.503488529280e-03 0.000000000000e+00 9.927806113430e-01 -2.963300720376e-03 0.000000000000e+00 9.945750309478e-01 -2.001303074546e-03 0.000000000000e+00 9.957941119150e-01 -1.340270750603e-03 0.000000000000e+00 9.965790995892e-01 -8.503112408029e-04 0.000000000000e+00 9.970157571976e-01 -4.591187487736e-04 0.000000000000e+00 9.973298673078e-01 -2.686334981934e-04 0.000000000000e+00 9.913155348021e-01 -3.207317775027e-02 0.000000000000e+00 9.866971719729e-01 -2.550760624066e-02 0.000000000000e+00 9.855187598491e-01 -1.673472281965e-02 0.000000000000e+00 9.893078964138e-01 -1.096687196777e-02 0.000000000000e+00 9.920059625810e-01 -7.354109996695e-03 0.000000000000e+00 9.940029920951e-01 -5.048763701445e-03 0.000000000000e+00 9.954449480820e-01 -3.481938810576e-03 0.000000000000e+00 9.964482422691e-01 -2.353975193852e-03 0.000000000000e+00 9.971017877676e-01 -1.496114538982e-03 0.000000000000e+00 9.974666787357e-01 -8.010678112633e-04 0.000000000000e+00 9.977803783400e-01 -4.209420311166e-04 0.000000000000e+00 9.961382490680e-01 -2.347374264387e-02 0.000000000000e+00 9.942074087286e-01 -2.111228515671e-02 0.000000000000e+00 9.924782937906e-01 -1.678445466880e-02 0.000000000000e+00 9.931270109774e-01 -1.245671258582e-02 0.000000000000e+00 9.945229951894e-01 -9.027506324681e-03 0.000000000000e+00 9.957736724385e-01 -6.461945565456e-03 0.000000000000e+00 9.967456371969e-01 -4.554363679843e-03 0.000000000000e+00 9.974443072451e-01 -3.112082993797e-03 0.000000000000e+00 9.979059879967e-01 -1.986185168042e-03 0.000000000000e+00 9.981646624066e-01 -1.061398149610e-03 0.000000000000e+00 9.984475995881e-01 -5.309558294790e-04 0.000000000000e+00 9.983461381179e-01 -2.009999444773e-02 0.000000000000e+00 9.976299152522e-01 -1.885802680242e-02 0.000000000000e+00 9.967528448770e-01 -1.616534961237e-02 0.000000000000e+00 9.967808018100e-01 -1.289962939265e-02 0.000000000000e+00 9.972782057574e-01 -9.815484624427e-03 0.000000000000e+00 9.978483197164e-01 -7.230388007209e-03 0.000000000000e+00 9.983242478798e-01 -5.174584273370e-03 0.000000000000e+00 9.986754234853e-01 -3.562896486969e-03 0.000000000000e+00 9.989094165769e-01 -2.280822173775e-03 0.000000000000e+00 9.990397896636e-01 -1.217511242638e-03 0.000000000000e+00 9.992657358629e-01 -5.892138536678e-04 0.000000000000e+00 9.997437747607e-01 -1.925094300681e-02 0.000000000000e+00 9.998937529653e-01 -1.828477863939e-02 0.000000000000e+00 9.999729512067e-01 -1.599337299842e-02 0.000000000000e+00 1.000027708116e+00 -1.301366411932e-02 0.000000000000e+00 1.000046592074e+00 -1.003423078929e-02 0.000000000000e+00 1.000043891163e+00 -7.444462746178e-03 0.000000000000e+00 1.000034300704e+00 -5.346482757684e-03 0.000000000000e+00 1.000024174082e+00 -3.686728598226e-03 0.000000000000e+00 1.000015028665e+00 -2.360247283825e-03 0.000000000000e+00 1.000006873206e+00 -1.257267430304e-03 0.000000000000e+00 1.000155080768e+00 -5.911402032025e-04 0.000000000000e+00 1.001005150898e+00 -2.040338256780e-02 0.000000000000e+00 1.002137006009e+00 -1.925343770092e-02 0.000000000000e+00 1.003233459585e+00 -1.647605845283e-02 0.000000000000e+00 1.003317964220e+00 -1.301744728453e-02 0.000000000000e+00 1.002834087401e+00 -9.777724535163e-03 0.000000000000e+00 1.002243333955e+00 -7.129510143468e-03 0.000000000000e+00 1.001743962490e+00 -5.070994566935e-03 0.000000000000e+00 1.001371642893e+00 -3.478126868411e-03 0.000000000000e+00 1.001119561240e+00 -2.219140463210e-03 0.000000000000e+00 1.000973405159e+00 -1.177595306022e-03 0.000000000000e+00 1.001029508293e+00 -5.365660881771e-04 0.000000000000e+00 1.002598083673e+00 -2.418986818386e-02 0.000000000000e+00 1.005532592559e+00 -2.217401426588e-02 0.000000000000e+00 1.007727091849e+00 -1.753485704684e-02 0.000000000000e+00 1.007117862061e+00 -1.260378933683e-02 0.000000000000e+00 1.005621341285e+00 -8.832232711915e-03 0.000000000000e+00 1.004322172384e+00 -6.208490102504e-03 0.000000000000e+00 1.003318920205e+00 -4.331879334593e-03 0.000000000000e+00 1.002598134119e+00 -2.940989997609e-03 0.000000000000e+00 1.002119532324e+00 -1.865149848265e-03 0.000000000000e+00 1.001846831423e+00 -9.841181752246e-04 0.000000000000e+00 1.001804135724e+00 -4.297299274803e-04 0.000000000000e+00 1.004979252036e+00 -3.346020848178e-02 0.000000000000e+00 1.013472103597e+00 -2.845621085787e-02 0.000000000000e+00 1.015650107609e+00 -1.820908332171e-02 0.000000000000e+00 1.010957495437e+00 -1.051930421507e-02 0.000000000000e+00 1.008140702572e+00 -6.788990092296e-03 0.000000000000e+00 1.006082001798e+00 -4.580747573272e-03 0.000000000000e+00 1.004607724458e+00 -3.130126819428e-03 0.000000000000e+00 1.003584736050e+00 -2.101358692682e-03 0.000000000000e+00 1.002917532840e+00 -1.323153998751e-03 0.000000000000e+00 1.002541913753e+00 -6.923859485576e-04 0.000000000000e+00 1.002403043869e+00 -2.797693474074e-04 0.000000000000e+00 1.002300068975e+00 -6.240167304262e-02 0.000000000000e+00 1.054721582018e+00 -4.224924818971e-02 0.000000000000e+00 1.019071884944e+00 -1.030777147047e-02 0.000000000000e+00 1.013836883157e+00 -5.657228270697e-03 0.000000000000e+00 1.009911452237e+00 -3.468379730864e-03 0.000000000000e+00 1.007270379188e+00 -2.286028157797e-03 0.000000000000e+00 1.005455067524e+00 -1.542170532013e-03 0.000000000000e+00 1.004224130378e+00 -1.026664530055e-03 0.000000000000e+00 1.003431388082e+00 -6.408704783974e-04 0.000000000000e+00 1.002988862777e+00 -3.291449728306e-04 0.000000000000e+00 1.002766787033e+00 -1.009152944403e-04 0.000000000000e+00 1.105555995821e+00 -1.035097098950e-01 0.000000000000e+00 1.007142237993e+00 -1.618345112182e-02 0.000000000000e+00 1.022774672057e+00 -4.821095845295e-03 0.000000000000e+00 1.015023662545e+00 -2.548905219672e-03 0.000000000000e+00 1.010632732724e+00 -1.551156894020e-03 0.000000000000e+00 1.007728731482e+00 -1.016569978088e-03 0.000000000000e+00 1.005772120509e+00 -6.828377938885e-04 0.000000000000e+00 1.004459035165e+00 -4.522659059982e-04 0.000000000000e+00 1.003617950649e+00 -2.796192084397e-04 0.000000000000e+00 1.003149705380e+00 -1.396032019007e-04 0.000000000000e+00 1.002915320563e+00 -2.030009615017e-05 0.000000000000e+00 
        </DataArray>
        <DataArray type="Float64" Name="DISPLACEMENT" NumberOfComponents="3" format="ascii">
          0.000000000000e+00 0.000000000000e+00 0.000000000000e+00 8.853764473342e-04 0.000000000000e+00 0.000000000000e+00 1.646398885238e-03 0.000000000000e+00 0.000000000000e+00 2.294178530517e-03 0.000000000000e+00 0.000000000000e+00 2.838019706242e-03 0.000000000000e+00 0.000000000000e+00 3.284811580788e-03 0.000000000000e+00 0.000000000000e+00 3.638645994417e-03 0.000000000000e+00 0.000000000000e+00 3.900561481549e-03 0.000000000000e+00 0.000000000000e+00 4.068269109005e-03 0.000000000000e+00 0.000000000000e+00 4.135706001318e-03 0.000000000000e+00 0.000000000000e+00 4.092239272429e-03 0.000000000000e+00 0.000000000000e+00 0.000000000000e+00 7.157421509874e-04 0.000000000000e+00 8.860615111975e-04 7.068512726631e-04 0.000000000000e+00 1.647873211313e-03 6.808431176711e-04 0.000000000000e+00 2.296616390742e-03 6.396304758981e-04 0.000000000000e+00 2.841592260386e-03 5.861205311572e-04 0.000000000000e+00 3.289630785951e-03 5.239115105110e-04 0.000000000000e+00 3.644745035451e-03 4.570565764386e-04 0.000000000000e+00 3.907924784277e-03 3.899750589215e-04 0.000000000000e+00 4.076911733648e-03 3.275458318289e-04 0.000000000000e+00 4.145789510033e-03 2.753692154119e-04 0.000000000000e+00 4.104195343235e-03 2.401318927456e-04 0.000000000000e+00 0.000000000000e+00 1.435623385120e-03 0.000000000000e+00 8.883932081419e-04 1.417554737668e-03 0.000000000000e+00 1.652872524732e-03 1.364755709561e-03 0.000000000000e+00 2.304815487557e-03 1.281221472763e-03 0.000000000000e+00 2.853500533818e-03 1.172954780512e-03 0.000000000000e+00 3.305556014409e-03 1.047282254480e-03 0.000000000000e+00 3.664734396630e-03 9.123299428143e-04 0.000000000000e+00 3.931859463064e-03 7.768281568315e-04 0.000000000000e+00 4.104752188711e-03 6.503108403402e-04 0.000000000000e+00 4.177936530345e-03 5.436858834399e-04 0.000000000000e+00 4.141888555079e-03 4.700591765728e-04 0.000000000000e+00 0.000000000000e+00 2.163514392976e-03 0.000000000000e+00 8.932412568136e-04 2.135672993884e-03 0.000000000000e+00 1.663177626546e-03 2.054451966253e-03 0.000000000000e+00 2.321503008298e-03 1.926315561416e-03 0.000000000000e+00 2.877396569817e-03 1.760785030553e-03 0.000000000000e+00 3.337066389932e-03 1.569195383921e-03 0.000000000000e+00 3.703753810715e-03 1.363783991784e-03 0.000000000000e+00 3.977948131586e-03 1.157363763105e-03 0.000000000000e+00 4.157565014265e-03 9.636520931704e-04 0.000000000000e+00 4.237861320121e-03 7.982276293841e-04 0.000000000000e+00 4.210792610107e-03 6.799895546813e-04 0.000000000000e+00 0.000000000000e+00 2.902796776160e-03 0.000000000000e+00 9.021508837189e-04 2.864200679683e-03 0.000000000000e+00 1.681946730926e-03 2.751914798097e-03 0.000000000000e+00 2.351490288803e-03 2.575593870278e-03 0.000000000000e+00 2.919662425900e-03 2.349021223876e-03 0.000000000000e+00 3.391895656319e-03 2.087993030429e-03 0.000000000000e+00 3.770575583803e-03 1.808899153074e-03 0.000000000000e+00 4.055636426223e-03 1.528263443222e-03 0.000000000000e+00 4.245069439576e-03 1.263233726947e-03 0.000000000000e+00 4.335147125080e-03 1.032993463924e-03 0.000000000000e+00 4.320036589982e-03 8.610649034926e-04 0.000000000000e+00 0.000000000000e+00 3.656056728004e-03 0.000000000000e+00 9.175316853758e-04 3.605199249088e-03 0.000000000000e+00 1.714100439184e-03 3.457910764537e-03 0.000000000000e+00 2.402201217517e-03 3.228338627716e-03 0.000000000000e+00 2.989964284905e-03 2.935723806832e-03 0.000000000000e+00 3.481489721734e-03 2.600932468819e-03 0.000000000000e+00 3.877898479561e-03 2.244486207230e-03 0.000000000000e+00 4.178369680623e-03 1.886072290411e-03 0.000000000000e+00 4.380962946693e-03 1.545227463438e-03 0.000000000000e+00 4.483222134087e-03 1.243172399287e-03 0.000000000000e+00 4.482307245653e-03 1.006077403393e-03 0.000000000000e+00 0.000000000000e+00 4.424671709816e-03 0.000000000000e+00 9.430714993470e-04 4.359262026111e-03 0.000000000000e+00 1.767144937826e-03 4.171280255961e-03 0.000000000000e+00 2.484745161137e-03 3.881746917060e-03 0.000000000000e+00 3.102291016512e-03 3.517133376447e-03 0.000000000000e+00 3.621767196268e-03 3.103971818687e-03 0.000000000000e+00 4.042722700517e-03 2.666661948918e-03 0.000000000000e+00 4.363615035055e-03 2.227300730809e-03 0.000000000000e+00 4.582717886743e-03 1.806572174387e-03 0.000000000000e+00 4.699057386522e-03 1.425709005177e-03 0.000000000000e+00 4.713456964864e-03 1.110470325384e-03 0.000000000000e+00 0.000000000000e+00 5.208133991044e-03 0.000000000000e+00 9.846674445678e-04 5.124573409113e-03 0.000000000000e+00 1.852962875042e-03 4.887759054177e-03 0.000000000000e+00 2.616055859653e-03 4.530054046857e-03 0.000000000000e+00 3.276802532133e-03 4.087365408685e-03 0.000000000000e+00 3.834298772268e-03 3.591925763762e-03 0.000000000000e+00 4.286757208230e-03 3.071217650664e-03 0.000000000000e+00 4.632575563283e-03 2.548798488058e-03 0.000000000000e+00 4.870827774616e-03 2.045327747982e-03 0.000000000000e+00 5.002233082332e-03 1.579923705288e-03 0.000000000000e+00 5.031488926260e-03 1.173676818834e-03 0.000000000000e+00 0.000000000000e+00 6.002724274685e-03 0.000000000000e+00 1.052765156449e-03 5.894914380212e-03 0.000000000000e+00 1.991916864349e-03 5.597894171446e-03 0.000000000000e+00 2.823025639268e-03 5.163654338833e-03 0.000000000000e+00 3.542828270542e-03 4.638722021724e-03 0.000000000000e+00 4.147949649119e-03 4.059418913423e-03 0.000000000000e+00 4.636801696778e-03 3.454746578134e-03 0.000000000000e+00 5.009405719575e-03 2.848702007371e-03 0.000000000000e+00 5.267057940619e-03 2.261239001255e-03 0.000000000000e+00 5.412742196215e-03 1.708043679648e-03 0.000000000000e+00 5.454325173787e-03 1.200772056243e-03 0.000000000000e+00 0.000000000000e+00 6.798362714540e-03 0.000000000000e+00 1.169700764931e-03 6.654512851105e-03 0.000000000000e+00 2.222788860782e-03 6.283943176970e-03 0.000000000000e+00 3.149590131255e-03 5.769486115827e-03 0.000000000000e+00 3.942764776496e-03 5.163570673846e-03 0.000000000000e+00 4.600692710588e-03 4.503118109512e-03 0.000000000000e+00 5.125127490934e-03 3.816878035491e-03 0.000000000000e+00 5.520088690289e-03 3.128451360688e-03 0.000000000000e+00 5.791379196638e-03 2.457015551034e-03 0.000000000000e+00 5.946319105581e-03 1.815454760381e-03 0.000000000000e+00 5.995076065187e-03 1.204136755777e-03 0.000000000000e+00 0.000000000000e+00 7.566439393941e-03 0.000000000000e+00 1.403579988066e-03 7.363796658809e-03 0.000000000000e+00 2.623246264479e-03 6.921724612358e-03 0.000000000000e+00 3.664603188914e-03 6.336294562949e-03 0.000000000000e+00 4.534717655468e-03 5.658813368202e-03 0.000000000000e+00 5.240653681787e-03 4.925202195543e-03 0.000000000000e+00 5.790154776983e-03 4.163443983749e-03 0.000000000000e+00 6.192360682020e-03 3.396346101476e-03 0.000000000000e+00 6.458912960426e-03 2.642073606691e-03 0.000000000000e+00 6.605488789857e-03 1.911988499769e-03 0.000000000000e+00 6.651427425291e-03 1.202323826834e-03 0.000000000000e+00 
        </DataArray>
        <DataArray type="Float64" Name="DENSITY" format="ascii">
          8.917079500000e-07 9.025371550001e-07 9.133663600001e-07 9.241955650001e-07 9.350247700002e-07 9.458539750002e-07 9.566831800002e-07 9.675123850001e-07 9.783415900001e-07 9.891707950001e-07 1.000000000000e-06 8.917079500000e-07 9.025371550001e-07 9.133663600001e-07 9.241955650001e-07 9.350247700002e-07 9.458539750002e-07 9.566831800002e-07 9.675123850001e-07 9.783415900001e-07 9.891707950001e-07 1.000000000000e-06 8.917079500000e-07 9.025371550001e-07 9.133663600001e-07 9.241955650001e-07 9.350247700002e-07 9.458539750002e-07 9.566831800002e-07 9.675123850001e-07 9.783415900001e-07 9.891707950001e-07 1.000000000000e-06 8.917079500000e-07 9.025371550001e-07 9.133663600001e-07 9.241955650001e-07 9.350247700002e-07 9.458539750002e-07 9.566831800002e-07 9.675123850001e-07 9.783415900001e-07 9.891707950001e-07 1.000000000000e-06 8.917079500000e-07 9.025371550001e-07 9.133663600001e-07 9.241955650001e-07 9.350247700002e-07 9.458539750002e-07 9.566831800002e-07 9.675123850001e-07 9.783415900001e-07 9.891707950001e-07 1.000000000000e-06 8.917079500000e-07 9.025371550001e-07 9.133663600001e-07 9.241955650001e-07 9.350247700002e-07 9.458539750002e-07 9.566831800002e-07 9.675123850001e-07 9.783415900001e-07 9.891707950001e-07 1.000000000000e-06 8.917079500000e-07 9.025371550001e-07 9.133663600001e-07 9.241955650001e-07 9.350247700002e-07 9.458539750002e-07 9.566831800002e-07 9.675123850001e-07 9.783415900001e-07 9.891707950001e-07 1.000000000000e-06 8.917079500000e-07 9.025371550001e-07 9.133663600001e-07 9.241955650001e-07 9.350247700002e-07 9.458539750002e-07 9.566831800002e-07 9.675123850001e-07 9.783415900001e-07 9.891707950001e-07 1.000000000000e-06 8.917079500000e-07 9.025371550001e-07 9.133663600001e-07 9.241955650001e-07 9.350247700002e-07 9.458539750002e-07 9.566831800002e-07 9.675123850001e-07 9.783415900001e-07 9.891707950001e-07 1.000000000000e-06 8.917079500000e-07 9.025371550001e-07 9.133663600001e-07 9.241955650001e-07 9.350247700002e-07 9.458539750002e-07 9.566831800002e-07 9.675123850001e-07 9.783415900001e-07 9.891707950001e-07 1.000000000000e-06 8.917079500000e-07 9.025371550001e-07 9.133663600001e-07 9.241955650001e-07 9.350247700002e-07 9.458539750002e-07 9.566831800002e-07 9.675123850001e-07 9.783415900001e-07 9.891707950001e-07 1.000000000000e-06 
        </DataArray>
        <DataArray type="Float64" Name="VISCOSITY" format="ascii">
          1.278000000000e-09 1.278000000000e-09 1.278000000000e-09 1.278000000000e-09 1.278000000000e-09 1.278000000000e-09 1.278000000000e-09 1.278000000000e-09 1.278000000000e-09 1.278000000000e-09 1.278000000000e-09 1.278000000000e-09 1.278000000000e-09 1.278000000000e-09 1.278000000000e-09 1.278000000000e-09 1.278000000000e-09 1.278000000000e-09 1.278000000000e-09 1.278000000000e-09 1.278000000000e-09 1.278000000000e-09 1.278000000000e-09 1.278000000000e-09 1.278000000000e-09 1.278000000000e-09 1.278000000000e-09 1.278000000000e-09 1.278000000000e-09 1.278000000000e-09 1.278000000000e-09 1.278000000000e-09 1.278000000000e-09 1.278000000000e-09 1.278000000000e-09 1.278000000000e-09 1.278000000000e-09 1.278000000000e-09 1.278000000000e-09 1.278000000000e-09 1.278000000000e-09 1.278000000000e-09 1.278000000000e-09 1.278000000000e-09 1.278000000000e-09 1.278000000000e-09 1.278000000000e-09 1.278000000000e-09 1.278000000000e-09 1.278000000000e-09 1.278000000000e-09 1.278000000000e-09 1.278000000000e-09 1.278000000000e-09 1.278000000000e-09 1.278000000000e-09 1.278000000000e-09 1.278000000000e-09 1.278000000000e-09 1.278000000000e-09 1.278000000000e-09 1.278000000000e-09 1.278000000000e-09 1.278000000000e-09 1.278000000000e-09 1.278000000000e-09 1.278000000000e-09 1.278000000000e-09 1.278000000000e-09 1.278000000000e-09 1.278000000000e-09 1.278000000000e-09 1.278000000000e-09 1.278000000000e-09 1.278000000000e-09 1.278000000000e-09 1.278000000000e-09 1.278000000000e-09 1.278000000000e-09 1.278000000000e-09 1.278000000000e-09 1.278000000000e-09 1.278000000000e-09 1.278000000000e-09 1.278000000000e-09 1.278000000000e-09 1.278000000000e-09 1.278000000000e-09 1.278000000000e-09 1.278000000000e-09 1.278000000000e-09 1.278000000000e-09 1.278000000000e-09 1.278000000000e-09 1.278000000000e-09 1.278000000000e-09 1.278000000000e-09 1.278000000000e-09 1.278000000000e-09 1.278000000000e-09 1.278000000000e-09 1.278000000000e-09 1.278000000000e-09 1.278000000000e-09 1.278000000000e-09 1.278000000000e-09 1.278000000000e-09 1.278000000000e-09 1.278000000000e-09 1.278000000000e-09 1.278000000000e-09 1.278000000000e-09 1.278000000000e-09 1.278000000000e-09 1.278000000000e-09 1.278000000000e-09 1.278000000000e-09 1.278000000000e-09 1.278000000000e-09 1.278000000000e-09 1.278000000000e-09 
        </DataArray>
        <DataArray type="Float64" Name="SPECIFIC_HEAT_CAPACITY" format="ascii">
          4.680000000000e+03 4.680000000000e+03 4.680000000000e+03 4.680000000000e+03 4.680000000000e+03 4.680000000000e+03 4.680000000000e+03 4.680000000000e+03 4.680000000000e+03 4.680000000000e+03 4.680000000000e+03 4.680000000000e+03 4.680000000000e+03 4.680000000000e+03 4.680000000000e+03 4.680000000000e+03 4.680000000000e+03 4.680000000000e+03 4.680000000000e+03 4.680000000000e+03 4.680000000000e+03 4.680000000000e+03 4.680000000000e+03 4.680000000000e+03 4.680000000000e+03 4.680000000000e+03 4.680000000000e+03 4.680000000000e+03 4.680000000000e+03 4.680000000000e+03 4.680000000000e+03 4.680000000000e+03 4.680000000000e+03 4.680000000000e+03 4.680000000000e+03 4.680000000000e+03 4.680000000000e+03 4.680000000000e+03 4.680000000000e+03 4.680000000000e+03 4.680000000000e+03 4.680000000000e+03 4.680000000000e+03 4.680000000000e+03 4.680000000000e+03 4.680000000000e+03 4.680000000000e+03 4.680000000000e+03 4.680000000000e+03 4.680000000000e+03 4.680000000000e+03 4.680000000000e+03 4.680000000000e+03 4.680000000000e+03 4.680000000000e+03 4.680000000000e+03 4.680000000000e+03 4.680000000000e+03 4.680000000000e+03 4.680000000000e+03 4.680000000000e+03 4.680000000000e+03 4.680000000000e+03 4.680000000000e+03 4.680000000000e+03 4.680000000000e+03 4.680000000000e+03 4.680000000000e+03 4.680000000000e+03 4.680000000000e+03 4.680000000000e+03 4.680000000000e+03 4.680000000000e+03 4.680000000000e+03 4.680000000000e+03 4.680000000000e+03 4.680000000000e+03 4.680000000000e+03 4.680000000000e+03 4.680000000000e+03 4.680000000000e+03 4.680000000000e+03 4.680000000000e+03 4.680000000000e+03 4.680000000000e+03 4.680000000000e+03 4.680000000000e+03 4.680000000000e+03 4.680000000000e+03 4.680000000000e+03 4.680000000000e+03 4.680000000000e+03 4.680000000000e+03 4.680000000000e+03 4.680000000000e+03 4.680000000000e+03 4.680000000000e+03 4.680000000000e+03 4.680000000000e+03 4.680000000000e+03 4.680000000000e+03 4.680000000000e+03 4.680000000000e+03 4.680000000000e+03 4.680000000000e+03 4.680000000000e+03 4.680000000000e+03 4.680000000000e+03 4.680000000000e+03 4.680000000000e+03 4.680000000000e+03 4.680000000000e+03 4.680000000000e+03 4.680000000000e+03 4.680000000000e+03 4.680000000000e+03 4.680000000000e+03 4.680000000000e+03 4.680000000000e+03 4.680000000000e+03 4.680000000000e+03 
        </DataArray>
        <DataArray type="Float64" Name="HEAT_CONDUCTIVITY" format="ascii">
          6.000000000000e-01 6.000000000000e-01 6.000000000000e-01 6.000000000000e-01 6.000000000000e-01 6.000000000000e-01 6.000000000000e-01 6.000000000000e-01 6.000000000000e-01 6.000000000000e-01 6.000000000000e-01 6.000000000000e-01 6.000000000000e-01 6.000000000000e-01 6.000000000000e-01 6.000000000000e-01 6.000000000000e-01 6.000000000000e-01 6.000000000000e-01 6.000000000000e-01 6.000000000000e-01 6.000000000000e-01 6.000000000000e-01 6.000000000000e-01 6.000000000000e-01 6.000000000000e-01 6.000000000000e-01 6.000000000000e-01 6.000000000000e-01 6.000000000000e-01 6.000000000000e-01 6.000000000000e-01 6.000000000000e-01 6.000000000000e-01 6.000000000000e-01 6.000000000000e-01 6.000000000000e-01 6.000000000000e-01 6.000000000000e-01 6.000000000000e-01 6.000000000000e-01 6.000000000000e-01 6.000000000000e-01 6.000000000000e-01 6.000000000000e-01 6.000000000000e-01 6.000000000000e-01 6.000000000000e-01 6.000000000000e-01 6.000000000000e-01 6.000000000000e-01 6.000000000000e-01 6.000000000000e-01 6.000000000000e-01 6.000000000000e-01 6.000000000000e-01 6.000000000000e-01 6.000000000000e-01 6.000000000000e-01 6.000000000000e-01 6.000000000000e-01 6.000000000000e-01 6.000000000000e-01 6.000000000000e-01 6.000000000000e-01 6.000000000000e-01 6.000000000000e-01 6.000000000000e-01 6.000000000000e-01 6.000000000000e-01 6.000000000000e-01 6.000000000000e-01 6.000000000000e-01 6.000000000000e-01 6.000000000000e-01 6.000000000000e-01 6.000000000000e-01 6.000000000000e-01 6.000000000000e-01 6.000000000000e-01 6.000000000000e-01 6.000000000000e-01 6.000000000000e-01 6.000000000000e-01 6.000000000000e-01 6.000000000000e-01 6.000000000000e-01 6.000000000000e-01 6.000000000000e-01 6.000000000000e-01 6.000000000000e-01 6.000000000000e-01 6.000000000000e-01 6.000000000000e-01 6.000000000000e-01 6.000000000000e-01 6.000000000000e-01 6.000000000000e-01 6.000000000000e-01 6.000000000000e-01 6.000000000000e-01 6.000000000000e-01 6.000000000000e-01 6.000000000000e-01 6.000000000000e-01 6.000000000000e-01 6.000000000000e-01 6.000000000000e-01 6.000000000000e-01 6.000000000000e-01 6.000000000000e-01 6.000000000000e-01 6.000000000000e-01 6.000000000000e-01 6.000000000000e-01 6.000000000000e-01 6.000000000000e-01 6.000000000000e-01 6.000000000000e-01 6.000000000000e-01 6.000000000000e-01 
        </DataArray>
      </PointData>
      <CellData>
        <DataArray type="Float64" Name="DENSITY" format="ascii">
          8.971225525000e-07 9.079517575001e-07 9.187809625001e-07 9.296101675001e-07 9.404393725002e-07 9.512685775002e-07 9.620977825001e-07 9.729269875001e-07 9.837561925001e-07 9.945853975000e-07 8.971225525000e-07 9.079517575001e-07 9.187809625001e-07 9.296101675001e-07 9.404393725002e-07 9.512685775002e-07 9.620977825001e-07 9.729269875001e-07 9.837561925001e-07 9.945853975000e-07 8.971225525000e-07 9.079517575001e-07 9.187809625001e-07 9.296101675001e-07 9.404393725002e-07 9.512685775002e-07 9.620977825001e-07 9.729269875001e-07 9.837561925001e-07 9.945853975000e-07 8.971225525000e-07 9.079517575001e-07 9.187809625001e-07 9.296101675001e-07 9.404393725002e-07 9.512685775002e-07 9.620977825001e-07 9.729269875001e-07 9.837561925001e-07 9.945853975000e-07 8.971225525000e-07 9.079517575001e-07 9.187809625001e-07 9.296101675001e-07 9.404393725002e-07 9.512685775002e-07 9.620977825001e-07 9.729269875001e-07 9.837561925001e-07 9.945853975000e-07 8.971225525000e-07 9.079517575001e-07 9.187809625001e-07 9.296101675001e-07 9.404393725002e-07 9.512685775002e-07 9.620977825001e-07 9.729269875001e-07 9.837561925001e-07 9.945853975000e-07 8.971225525000e-07 9.079517575001e-07 9.187809625001e-07 9.296101675001e-07 9.404393725002e-07 9.512685775002e-07 9.620977825001e-07 9.729269875001e-07 9.837561925001e-07 9.945853975000e-07 8.971225525000e-07 9.079517575001e-07 9.187809625001e-07 9.296101675001e-07 9.404393725002e-07 9.512685775002e-07 9.620977825001e-07 9.729269875001e-07 9.837561925001e-07 9.945853975000e-07 8.971225525000e-07 9.079517575001e-07 9.187809625001e-07 9.296101675001e-07 9.404393725002e-07 9.512685775002e-07 9.620977825001e-07 9.729269875001e-07 9.837561925001e-07 9.945853975000e-07 8.971225525000e-07 9.079517575001e-07 9.187809625001e-07 9.296101675001e-07 9.404393725002e-07 9.512685775002e-07 9.620977825001e-07 9.729269875001e-07 9.837561925001e-07 9.945853975000e-07 
        </DataArray>
        <DataArray type="Float64" Name="VISCOSITY" format="ascii">
          1.278000000000e-09 1.278000000000e-09 1.278000000000e-09 1.278000000000e-09 1.278000000000e-09 1.278000000000e-09 1.278000000000e-09 1.278000000000e-09 1.278000000000e-09 1.278000000000e-09 1.278000000000e-09 1.278000000000e-09 1.278000000000e-09 1.278000000000e-09 1.278000000000e-09 1.278000000000e-09 1.278000000000e-09 1.278000000000e-09 1.278000000000e-09 1.278000000000e-09 1.278000000000e-09 1.278000000000e-09 1.278000000000e-09 1.278000000000e-09 1.278000000000e-09 1.278000000000e-09 1.278000000000e-09 1.278000000000e-09 1.278000000000e-09 1.278000000000e-09 1.278000000000e-09 1.278000000000e-09 1.278000000000e-09 1.278000000000e-09 1.278000000000e-09 1.278000000000e-09 1.278000000000e-09 1.278000000000e-09 1.278000000000e-09 1.278000000000e-09 1.278000000000e-09 1.278000000000e-09 1.278000000000e-09 1.278000000000e-09 1.278000000000e-09 1.278000000000e-09 1.278000000000e-09 1.278000000000e-09 1.278000000000e-09 1.278000000000e-09 1.278000000000e-09 1.278000000000e-09 1.278000000000e-09 1.278000000000e-09 1.278000000000e-09 1.278000000000e-09 1.278000000000e-09 1.278000000000e-09 1.278000000000e-09 1.278000000000e-09 1.278000000000e-09 1.278000000000e-09 1.278000000000e-09 1.278000000000e-09 1.278000000000e-09 1.278000000000e-09 1.278000000000e-09 1.278000000000e-09 1.278000000000e-09 1.278000000000e-09 1.278000000000e-09 1.278000000000e-09 1.278000000000e-09 1.278000000000e-09 1.278000000000e-09 1.278000000000e-09 1.278000000000e-09 1.278000000000e-09 1.278000000000e-09 1.278000000000e-09 1.278000000000e-09 1.278000000000e-09 1.278000000000e-09 1.278000000000e-09 1.278000000000e-09 1.278000000000e-09 1.278000000000e-09 1.278000000000e-09 1.278000000000e-09 1.278000000000e-09 1.278000000000e-09 1.278000000000e-09 1.278000000000e-09 1.278000000000e-09 1.278000000000e-09 1.278000000000e-09 1.278000000000e-09 1.278000000000e-09 1.278000000000e-09 1.278000000000e-09 
        </DataArray>
      </CellData>
    </Piece>
  </UnstructuredGrid>
</VTKFile>
