<?xml version="1.0"?>
<!-- Time step: 3 | Time: 3.000000000000e+01 -->
<VTKFile type="UnstructuredGrid" version="0.1" byte_order="LittleEndian">
  <UnstructuredGrid>
    <Piece NumberOfPoints="121" NumberOfCells="100">
      <Points>
        <DataArray type="Float64" NumberOfComponents="3" format="ascii">
          0.000000000000e+00 0.000000000000e+00 0.000000000000e+00
          1.000000000000e-01 0.000000000000e+00 0.000000000000e+00
          2.000000000000e-01 0.000000000000e+00 0.000000000000e+00
          3.000000000000e-01 0.000000000000e+00 0.000000000000e+00
          4.000000000000e-01 0.000000000000e+00 0.000000000000e+00
          5.000000000000e-01 0.000000000000e+00 0.000000000000e+00
          6.000000000000e-01 0.000000000000e+00 0.000000000000e+00
          7.000000000000e-01 0.000000000000e+00 0.000000000000e+00
          8.000000000000e-01 0.000000000000e+00 0.000000000000e+00
          9.000000000000e-01 0.000000000000e+00 0.000000000000e+00
          1.000000000000e+00 0.000000000000e+00 0.000000000000e+00
          0.000000000000e+00 1.000000000000e-01 0.000000000000e+00
          1.000000000000e-01 1.000000000000e-01 0.000000000000e+00
          2.000000000000e-01 1.000000000000e-01 0.000000000000e+00
          3.000000000000e-01 1.000000000000e-01 0.000000000000e+00
          4.000000000000e-01 1.000000000000e-01 0.000000000000e+00
          5.000000000000e-01 1.000000000000e-01 0.000000000000e+00
          6.000000000000e-01 1.000000000000e-01 0.000000000000e+00
          7.000000000000e-01 1.000000000000e-01 0.000000000000e+00
          8.000000000000e-01 1.000000000000e-01 0.000000000000e+00
          9.000000000000e-01 1.000000000000e-01 0.000000000000e+00
          1.000000000000e+00 1.000000000000e-01 0.000000000000e+00
          0.000000000000e+00 2.000000000000e-01 0.000000000000e+00
          1.000000000000e-01 2.000000000000e-01 0.000000000000e+00
          2.000000000000e-01 2.000000000000e-01 0.000000000000e+00
          3.000000000000e-01 2.000000000000e-01 0.000000000000e+00
          4.000000000000e-01 2.000000000000e-01 0.000000000000e+00
          5.000000000000e-01 2.000000000000e-01 0.000000000000e+00
          6.000000000000e-01 2.000000000000e-01 0.000000000000e+00
          7.000000000000e-01 2.000000000000e-01 0.000000000000e+00
          8.000000000000e-01 2.000000000000e-01 0.000000000000e+00
          9.000000000000e-01 2.000000000000e-01 0.000000000000e+00
          1.000000000000e+00 2.000000000000e-01 0.000000000000e+00
          0.000000000000e+00 3.000000000000e-01 0.000000000000e+00
          1.000000000000e-01 3.000000000000e-01 0.000000000000e+00
          2.000000000000e-01 3.000000000000e-01 0.000000000000e+00
          3.000000000000e-01 3.000000000000e-01 0.000000000000e+00
          4.000000000000e-01 3.000000000000e-01 0.000000000000e+00
          5.000000000000e-01 3.000000000000e-01 0.000000000000e+00
          6.000000000000e-01 3.000000000000e-01 0.000000000000e+00
          7.000000000000e-01 3.000000000000e-01 0.000000000000e+00
          8.000000000000e-01 3.000000000000e-01 0.000000000000e+00
          9.000000000000e-01 3.000000000000e-01 0.000000000000e+00
          1.000000000000e+00 3.000000000000e-01 0.000000000000e+00
          0.000000000000e+00 4.000000000000e-01 0.000000000000e+00
          1.000000000000e-01 4.000000000000e-01 0.000000000000e+00
          2.000000000000e-01 4.000000000000e-01 0.000000000000e+00
          3.000000000000e-01 4.000000000000e-01 0.000000000000e+00
          4.000000000000e-01 4.000000000000e-01 0.000000000000e+00
          5.000000000000e-01 4.000000000000e-01 0.000000000000e+00
          6.000000000000e-01 4.000000000000e-01 0.000000000000e+00
          7.000000000000e-01 4.000000000000e-01 0.000000000000e+00
          8.000000000000e-01 4.000000000000e-01 0.000000000000e+00
          9.000000000000e-01 4.000000000000e-01 0.000000000000e+00
          1.000000000000e+00 4.000000000000e-01 0.000000000000e+00
          0.000000000000e+00 5.000000000000e-01 0.000000000000e+00
          1.000000000000e-01 5.000000000000e-01 0.000000000000e+00
          2.000000000000e-01 5.000000000000e-01 0.000000000000e+00
          3.000000000000e-01 5.000000000000e-01 0.000000000000e+00
          4.000000000000e-01 5.000000000000e-01 0.000000000000e+00
          5.000000000000e-01 5.000000000000e-01 0.000000000000e+00
          6.000000000000e-01 5.000000000000e-01 0.000000000000e+00
          7.000000000000e-01 5.000000000000e-01 0.000000000000e+00
          8.000000000000e-01 5.000000000000e-01 0.000000000000e+00
          9.000000000000e-01 5.000000000000e-01 0.000000000000e+00
          1.000000000000e+00 5.000000000000e-01 0.000000000000e+00
          0.000000000000e+00 6.000000000000e-01 0.000000000000e+00
          1.000000000000e-01 6.000000000000e-01 0.000000000000e+00
          2.000000000000e-01 6.000000000000e-01 0.000000000000e+00
          3.000000000000e-01 6.000000000000e-01 0.000000000000e+00
          4.000000000000e-01 6.000000000000e-01 0.000000000000e+00
          5.000000000000e-01 6.000000000000e-01 0.000000000000e+00
          6.000000000000e-01 6.000000000000e-01 0.000000000000e+00
          7.000000000000e-01 6.000000000000e-01 0.000000000000e+00
          8.000000000000e-01 6.000000000000e-01 0.000000000000e+00
          9.000000000000e-01 6.000000000000e-01 0.000000000000e+00
          1.000000000000e+00 6.000000000000e-01 0.000000000000e+00
          0.000000000000e+00 7.000000000000e-01 0.000000000000e+00
          1.000000000000e-01 7.000000000000e-01 0.000000000000e+00
          2.000000000000e-01 7.000000000000e-01 0.000000000000e+00
          3.000000000000e-01 7.000000000000e-01 0.000000000000e+00
          4.000000000000e-01 7.000000000000e-01 0.000000000000e+00
          5.000000000000e-01 7.000000000000e-01 0.000000000000e+00
          6.000000000000e-01 7.000000000000e-01 0.000000000000e+00
          7.000000000000e-01 7.000000000000e-01 0.000000000000e+00
          8.000000000000e-01 7.000000000000e-01 0.000000000000e+00
          9.000000000000e-01 7.000000000000e-01 0.000000000000e+00
          1.000000000000e+00 7.000000000000e-01 0.000000000000e+00
          0.000000000000e+00 8.000000000000e-01 0.000000000000e+00
          1.000000000000e-01 8.000000000000e-01 0.000000000000e+00
          2.000000000000e-01 8.000000000000e-01 0.000000000000e+00
          3.000000000000e-01 8.000000000000e-01 0.000000000000e+00
          4.000000000000e-01 8.000000000000e-01 0.000000000000e+00
          5.000000000000e-01 8.000000000000e-01 0.000000000000e+00
          6.000000000000e-01 8.000000000000e-01 0.000000000000e+00
          7.000000000000e-01 8.000000000000e-01 0.000000000000e+00
          8.000000000000e-01 8.000000000000e-01 0.000000000000e+00
          9.000000000000e-01 8.000000000000e-01 0.000000000000e+00
          1.000000000000e+00 8.000000000000e-01 0.000000000000e+00
          0.000000000000e+00 9.000000000000e-01 0.000000000000e+00
          1.000000000000e-01 9.000000000000e-01 0.000000000000e+00
          2.000000000000e-01 9.000000000000e-01 0.000000000000e+00
          3.000000000000e-01 9.000000000000e-01 0.000000000000e+00
          4.000000000000e-01 9.000000000000e-01 0.000000000000e+00
          5.000000000000e-01 9.000000000000e-01 0.000000000000e+00
          6.000000000000e-01 9.000000000000e-01 0.000000000000e+00
          7.000000000000e-01 9.000000000000e-01 0.000000000000e+00
          8.000000000000e-01 9.000000000000e-01 0.000000000000e+00
          9.000000000000e-01 9.000000000000e-01 0.000000000000e+00
          1.000000000000e+00 9.000000000000e-01 0.000000000000e+00
          0.000000000000e+00 1.000000000000e+00 0.000000000000e+00
          1.000000000000e-01 1.000000000000e+00 0.000000000000e+00
          2.000000000000e-01 1.000000000000e+00 0.000000000000e+00
          3.000000000000e-01 1.000000000000e+00 0.000000000000e+00
          4.000000000000e-01 1.000000000000e+00 0.000000000000e+00
          5.000000000000e-01 1.000000000000e+00 0.000000000000e+00
          6.000000000000e-01 1.000000000000e+00 0.000000000000e+00
          7.000000000000e-01 1.000000000000e+00 0.000000000000e+00
          8.000000000000e-01 1.000000000000e+00 0.000000000000e+00
          9.000000000000e-01 1.000000000000e+00 0.000000000000e+00
          1.000000000000e+00 1.000000000000e+00 0.000000000000e+00
        </DataArray>
      </Points>
      <Cells>
        <DataArray type="Int64" Name="connectivity" format="ascii">
          0 1 12 11 
          1 2 13 12 
          2 3 14 13 
          3 4 15 14 
          4 5 16 15 
          5 6 17 16 
          6 7 18 17 
          7 8 19 18 
          8 9 20 19 
          9 10 21 20 
          11 12 23 22 
          12 13 24 23 
          13 14 25 24 
          14 15 26 25 
          15 16 27 26 
          16 17 28 27 
          17 18 29 28 
          18 19 30 29 
          19 20 31 30 
          20 21 32 31 
          22 23 34 33 
          23 24 35 34 
          24 25 36 35 
          25 26 37 36 
          26 27 38 37 
          27 28 39 38 
          28 29 40 39 
          29 30 41 40 
          30 31 42 41 
          31 32 43 42 
          33 34 45 44 
          34 35 46 45 
          35 36 47 46 
          36 37 48 47 
          37 38 49 48 
          38 39 50 49 
          39 40 51 50 
          40 41 52 51 
          41 42 53 52 
          42 43 54 53 
          44 45 56 55 
          45 46 57 56 
          46 47 58 57 
          47 48 59 58 
          48 49 60 59 
          49 50 61 60 
          50 51 62 61 
          51 52 63 62 
          52 53 64 63 
          53 54 65 64 
          55 56 67 66 
          56 57 68 67 
          57 58 69 68 
          58 59 70 69 
          59 60 71 70 
          60 61 72 71 
          61 62 73 72 
          62 63 74 73 
          63 64 75 74 
          64 65 76 75 
          66 67 78 77 
          67 68 79 78 
          68 69 80 79 
          69 70 81 80 
          70 71 82 81 
          71 72 83 82 
          72 73 84 83 
          73 74 85 84 
          74 75 86 85 
          75 76 87 86 
          77 78 89 88 
          78 79 90 89 
          79 80 91 90 
          80 81 92 91 
          81 82 93 92 
          82 83 94 93 
          83 84 95 94 
          84 85 96 95 
          85 86 97 96 
          86 87 98 97 
          88 89 100 99 
          89 90 101 100 
          90 91 102 101 
          91 92 103 102 
          92 93 104 103 
          93 94 105 104 
          94 95 106 105 
          95 96 107 106 
          96 97 108 107 
          97 98 109 108 
          99 100 111 110 
          100 101 112 111 
          101 102 113 112 
          102 103 114 113 
          103 104 115 114 
          104 105 116 115 
          105 106 117 116 
          106 107 118 117 
          107 108 119 118 
          108 109 120 119 
        </DataArray>
        <DataArray type="Int64" Name="offsets" format="ascii">
          4 8 12 16 20 24 28 32 36 40 44 48 52 56 60 64 68 72 76 80 84 88 92 96 100 104 108 112 116 120 124 128 132 136 140 144 148 152 156 160 164 168 172 176 180 184 188 192 196 200 204 208 212 216 220 224 228 232 236 240 244 248 252 256 260 264 268 272 276 280 284 288 292 296 300 304 308 312 316 320 324 328 332 336 340 344 348 352 356 360 364 368 372 376 380 384 388 392 396 400 
        </DataArray>
        <DataArray type="UInt8" Name="types" format="ascii">
          9 9 9 9 9 9 9 9 9 9 9 9 9 9 9 9 9 9 9 9 9 9 9 9 9 9 9 9 9 9 9 9 9 9 9 9 9 9 9 9 9 9 9 9 9 9 9 9 9 9 9 9 9 9 9 9 9 9 9 9 9 9 9 9 9 9 9 9 9 9 9 9 9 9 9 9 9 9 9 9 9 9 9 9 9 9 9 9 9 9 9 9 9 9 9 9 9 9 9 9 
        </DataArray>
      </Cells>
      <PointData Scalars="PRESSURE1">
        <DataArray type="Float64" Name="PRESSURE1" format="ascii">
          1.254560218416e-03 1.137639373662e-03 1.014091654797e-03 8.888225986071e-04 7.627150712271e-04 6.361109395040e-04 5.091858532652e-04 3.820471325459e-04 2.547682757132e-04 1.274042809424e-04 0.000000000000e+00 1.264926801643e-03 1.139594039462e-03 1.014908641824e-03 8.892668133661e-04 7.629908963318e-04 6.362931395368e-04 5.093084397791e-04 3.821279800639e-04 2.548175258310e-04 1.274276143767e-04 0.000000000000e+00 1.269776705619e-03 1.142917671789e-03 1.016648128458e-03 8.903104463233e-04 7.636691308553e-04 6.367513940726e-04 5.096203182321e-04 3.823348751795e-04 2.549439302917e-04 1.274875823893e-04 0.000000000000e+00 1.273087276024e-03 1.145705013742e-03 1.018660913210e-03 8.916909313119e-04 7.646269745921e-04 6.374204207288e-04 5.100834639914e-04 3.826448033308e-04 2.551341096181e-04 1.275779870142e-04 0.000000000000e+00 1.275776339416e-03 1.148138294247e-03 1.020644899455e-03 8.932030795694e-04 7.657398930224e-04 6.382225586944e-04 5.106479067978e-04 3.830256919866e-04 2.553688117259e-04 1.276897710001e-04 0.000000000000e+00 1.278233396750e-03 1.150417532816e-03 1.022586959304e-03 8.947503307869e-04 7.669149921605e-04 6.390847426031e-04 5.112603374298e-04 3.834409634123e-04 2.556253181247e-04 1.278120753130e-04 0.000000000000e+00 1.280712858356e-03 1.152712463684e-03 1.024534426232e-03 8.962950592706e-04 7.680841204200e-04 6.399407122505e-04 5.118676534910e-04 3.838525215236e-04 2.558794550781e-04 1.279332332521e-04 0.000000000000e+00 1.283480191431e-03 1.155196502690e-03 1.026530546005e-03 8.977940815854e-04 7.691760114510e-04 6.407232084127e-04 5.124166182483e-04 3.842223925157e-04 2.561071918031e-04 1.280416611844e-04 0.000000000000e+00 1.286973414720e-03 1.158078765753e-03 1.028539201617e-03 8.991307577263e-04 7.700904980776e-04 6.413573760173e-04 5.128540220242e-04 3.845145469414e-04 2.562862971755e-04 1.281267650443e-04 0.000000000000e+00 1.292292293446e-03 1.161519471286e-03 1.030153532894e-03 9.000774477973e-04 7.706986151409e-04 6.417659964009e-04 5.131313510078e-04 3.846982645836e-04 2.563984626418e-04 1.281799607712e-04 0.000000000000e+00 1.304614365054e-03 1.162643304433e-03 1.030712702924e-03 9.003772613930e-04 7.708849542918e-04 6.418890783065e-04 5.132141623287e-04 3.847528797897e-04 2.564317327500e-04 1.281957232974e-04 0.000000000000e+00 
        </DataArray>
        <DataArray type="Float64" Name="TEMPERATURE1" format="ascii">
          5.231500000000e+02 4.708348217815e+02 4.185196619176e+02 3.662045364992e+02 3.138894576443e+02 2.615744324719e+02 2.092594626913e+02 1.569445447139e+02 1.046296701973e+02 5.231482693467e+01 0.000000000000e+00 5.231500000000e+02 4.708348217815e+02 4.185196619176e+02 3.662045364992e+02 3.138894576443e+02 2.615744324719e+02 2.092594626913e+02 1.569445447139e+02 1.046296701973e+02 5.231482693467e+01 0.000000000000e+00 5.231500000000e+02 4.708348217815e+02 4.185196619176e+02 3.662045364992e+02 3.138894576443e+02 2.615744324719e+02 2.092594626913e+02 1.569445447139e+02 1.046296701973e+02 5.231482693467e+01 0.000000000000e+00 5.231500000000e+02 4.708348217815e+02 4.185196619176e+02 3.662045364992e+02 3.138894576443e+02 2.615744324719e+02 2.092594626913e+02 1.569445447139e+02 1.046296701973e+02 5.231482693467e+01 0.000000000000e+00 5.231500000000e+02 4.708348217815e+02 4.185196619176e+02 3.662045364992e+02 3.138894576443e+02 2.615744324719e+02 2.092594626913e+02 1.569445447139e+02 1.046296701973e+02 5.231482693467e+01 0.000000000000e+00 5.231500000000e+02 4.708348217815e+02 4.185196619176e+02 3.662045364992e+02 3.138894576443e+02 2.615744324719e+02 2.092594626913e+02 1.569445447139e+02 1.046296701973e+02 5.231482693467e+01 0.000000000000e+00 5.231500000000e+02 4.708348217815e+02 4.185196619176e+02 3.662045364992e+02 3.138894576443e+02 2.615744324719e+02 2.092594626913e+02 1.569445447139e+02 1.046296701973e+02 5.231482693467e+01 0.000000000000e+00 5.231500000000e+02 4.708348217815e+02 4.185196619176e+02 3.662045364992e+02 3.138894576443e+02 2.615744324719e+02 2.092594626913e+02 1.569445447139e+02 1.046296701973e+02 5.231482693467e+01 0.000000000000e+00 5.231500000000e+02 4.708348217815e+02 4.185196619176e+02 3.662045364992e+02 3.138894576443e+02 2.615744324719e+02 2.092594626913e+02 1.569445447139e+02 1.046296701973e+02 5.231482693467e+01 0.000000000000e+00 5.231500000000e+02 4.708348217815e+02 4.185196619176e+02 3.662045364992e+02 3.138894576443e+02 2.615744324719e+02 2.092594626913e+02 1.569445447139e+02 1.046296701973e+02 5.231482693467e+01 0.000000000000e+00 5.231500000000e+02 4.708348217815e+02 4.185196619176e+02 3.662045364992e+02 3.138894576443e+02 2.615744324719e+02 2.092594626913e+02 1.569445447139e+02 1.046296701973e+02 5.231482693467e+01 0.000000000000e+00 
        </DataArray>
        <DataArray type="Float64" Name="STRESS_XX" format="ascii">
          -2.913324797204e-02 -2.858101420788e-02 -2.675584595984e-02 -2.383203807384e-02 -2.007391828521e-02 -1.579670043706e-02 -1.134066096711e-02 -7.064380816868e-03 -3.361050409030e-03 -6.936230006125e-04 2.665820226127e-04 -2.869133677591e-02 -2.814465548925e-02 -2.632202859013e-02 -2.341161630736e-02 -1.968600729904e-02 -1.546482756428e-02 -1.108612316355e-02 -6.899075248715e-03 -3.281279901813e-03 -6.766897062536e-04 2.606573729518e-04 -2.731783842601e-02 -2.677162199446e-02 -2.495700206858e-02 -2.208834751384e-02 -1.846534541821e-02 -1.442058810967e-02 -1.028447094434e-02 -6.377072511963e-03 -3.028302380963e-03 -6.230170040478e-04 2.417469681589e-04 -2.481250390456e-02 -2.426318145096e-02 -2.246037539018e-02 -1.966915432172e-02 -1.623720851293e-02 -1.251677339484e-02 -8.821141739776e-03 -5.418803404187e-03 -2.558215473581e-03 -5.206915765235e-04 2.065524980493e-04 -2.082199692544e-02 -2.026511323694e-02 -1.848079726808e-02 -1.582382052169e-02 -1.271433794617e-02 -9.521846965685e-03 -6.522083184197e-03 -3.904725277700e-03 -1.804013782275e-03 -3.511072530335e-04 1.499416635988e-04 -1.479619812874e-02 -1.422589030343e-02 -1.248133389792e-02 -1.007238470934e-02 -7.511226552791e-03 -5.153456474275e-03 -3.192042166537e-03 -1.704838374183e-03 -6.896718519071e-04 -9.088063635758e-05 6.605356683147e-05 -5.896334721327e-03 -5.306978451093e-03 -3.673079227208e-03 -1.772607054788e-03 -1.874365775240e-04 8.455603724023e-04 1.304258455319e-03 1.257840987026e-03 8.376463988644e-04 2.827008818466e-04 -4.924702863700e-05 7.205548770105e-03 7.812240939062e-03 9.104024826516e-03 9.862691550067e-03 9.637055023651e-03 8.556434508527e-03 6.892390616286e-03 4.883022289975e-03 2.735765692125e-03 7.777209813417e-04 -1.922887029275e-04 2.681385249530e-02 2.739503243296e-02 2.753835783743e-02 2.558477119665e-02 2.201074220191e-02 1.763667818631e-02 1.306041635750e-02 8.671029085234e-03 4.695908869438e-03 1.341618689903e-03 -3.335240051124e-04 5.753431726522e-02 5.800028737973e-02 5.351761665219e-02 4.535186228860e-02 3.615950116172e-02 2.703423692664e-02 1.862007364967e-02 1.138809080164e-02 5.695359641233e-03 1.634122608377e-03 -3.485927352431e-04 1.219423917010e-01 1.053495475466e-01 8.510436704672e-02 6.676929068351e-02 4.999343132493e-02 3.488538098227e-02 2.167825388006e-02 1.079999811511e-02 2.990504182101e-03 -5.519817413112e-04 -2.297774178969e-04 
        </DataArray>
        <DataArray type="Float64" Name="STRESS_XY" format="ascii">
          8.545058832384e-08 -1.134139504785e-06 -2.709422956775e-06 -4.297100489806e-06 -5.930929709250e-06 -7.451231522961e-06 -8.678964153171e-06 -9.456963127004e-06 -9.726205389500e-06 -1.092770284520e-05 2.454521594896e-05 -3.555587113244e-06 -1.324253426157e-03 -2.523973964212e-03 -3.495007723983e-03 -4.170053893800e-03 -4.514645329621e-03 -4.511770915099e-03 -4.139602120219e-03 -3.348396858274e-03 -2.042731234652e-03 -7.043928142386e-05 -7.827269188617e-06 -2.649396405898e-03 -5.034970338460e-03 -6.945444434884e-03 -8.250342396708e-03 -8.892132205412e-03 -8.850990474606e-03 -8.096870011486e-03 -6.540566958681e-03 -3.993956256288e-03 -1.404229625603e-04 -1.288068199190e-05 -3.975045597985e-03 -7.518073513673e-03 -1.029908595910e-02 -1.213659801257e-02 -1.297562175160e-02 -1.282239753850e-02 -1.166522111759e-02 -9.396646347937e-03 -5.744834730433e-03 -2.085621311744e-04 -1.969148331328e-05 -5.303906389752e-03 -9.952683136213e-03 -1.348268244166e-02 -1.568915434477e-02 -1.656514023890e-02 -1.618558106945e-02 -1.459278520918e-02 -1.169280804041e-02 -7.152356558982e-03 -2.707139405517e-04 -2.993561760236e-05 -6.639240846429e-03 -1.229886878805e-02 -1.637166326138e-02 -1.869527680588e-02 -1.938510310137e-02 -1.863388145201e-02 -1.657023486169e-02 -1.315086099701e-02 -8.027918620816e-03 -3.182494297303e-04 -4.732620116396e-05 -7.978824527205e-03 -1.445840536167e-02 -1.871978390280e-02 -2.079714407935e-02 -2.103612549268e-02 -1.977769585605e-02 -1.723772764482e-02 -1.345015487682e-02 -8.137456040995e-03 -3.351153634867e-04 -8.160804889043e-05 -9.295300913205e-03 -1.616594713373e-02 -1.999988612276e-02 -2.136277399766e-02 -2.092825922146e-02 -1.913781916550e-02 -1.622515483789e-02 -1.228452895186e-02 -7.228962622536e-03 -2.922776226827e-04 -1.654006123864e-04 -1.046320678584e-02 -1.665894586058e-02 -1.907042497193e-02 -1.930526254998e-02 -1.821532703293e-02 -1.615191317370e-02 -1.322786070076e-02 -9.498861161880e-03 -5.131622569730e-03 -1.342069137395e-04 -5.215125746173e-04 -1.090879334116e-02 -1.354937586105e-02 -1.370452355915e-02 -1.299654631755e-02 -1.180127921148e-02 -1.017618910408e-02 -8.045452688014e-03 -5.301720011970e-03 -2.090582328217e-03 2.464039812588e-04 -2.229266309336e-03 -2.309828723855e-03 -1.185600020672e-03 -8.071490214755e-04 -6.148677504914e-04 -4.937503211966e-04 -3.982700953948e-04 -2.912350298094e-04 -1.136712076859e-04 2.548327223172e-04 3.149251794285e-04 
        </DataArray>
        <DataArray type="Float64" Name="STRESS_YY" format="ascii">
          -6.707811912445e-02 -4.691062295996e-02 -3.013449770232e-02 -1.638919301442e-02 -5.123949841767e-03 4.351758849711e-03 1.282727749809e-02 2.117387412544e-02 3.035871547834e-02 4.148810181727e-02 5.587440507474e-02 -6.639662726764e-02 -4.626677503363e-02 -2.958183109810e-02 -1.596949386173e-02 -4.862317863183e-03 4.443004630289e-03 1.273912453214e-02 2.088909579709e-02 2.984141362009e-02 4.067777135558e-02 5.468892475042e-02 -6.437631715843e-02 -4.434572297796e-02 -2.793908323949e-02 -1.473346917553e-02 -4.104663732993e-03 4.691816342251e-03 1.245918148978e-02 2.003489842233e-02 2.830874824201e-02 3.828303378256e-02 5.117576389291e-02 -6.101008449674e-02 -4.115677269980e-02 -2.524162880430e-02 -1.274263792487e-02 -2.925270128222e-03 5.031664794825e-03 1.195006824538e-02 1.862160532004e-02 2.583029238816e-02 3.442908309743e-02 4.548398899707e-02 -5.628921475838e-02 -3.671362161738e-02 -2.155546005718e-02 -1.011136668395e-02 -1.458084626268e-03 5.345853016087e-03 1.114674040504e-02 1.666558057702e-02 2.252616899980e-02 2.934168734648e-02 3.790035657668e-02 -5.019575211229e-02 -3.104065350514e-02 -1.699640846217e-02 -7.028972437216e-03 9.041714199638e-05 5.465892080609e-03 9.959632863397e-03 1.419121489218e-02 1.857105437889e-02 2.336819253320e-02 2.890598306551e-02 -4.269714935432e-02 -2.418787189176e-02 -1.177402288950e-02 -3.798592900667e-03 1.432367383276e-03 5.188033836763e-03 8.296998604451e-03 1.124232295630e-02 1.419506855973e-02 1.699493143876e-02 1.924996906486e-02 -3.373862317087e-02 -1.627782716614e-02 -6.294544717184e-03 -8.954924531739e-04 2.218043360871e-03 4.335969513758e-03 6.129587814339e-03 7.917024111071e-03 9.676753422815e-03 1.083959197040e-02 1.002914653542e-02 -2.321611696715e-02 -7.656955760638e-03 -1.408175958648e-03 1.001450382872e-03 2.150626043025e-03 2.905238554956e-03 3.621625768700e-03 4.455138201959e-03 5.335289225473e-03 5.569937826983e-03 2.750938350950e-03 -1.046491744117e-02 2.208185877054e-04 1.182380559868e-03 1.311800558493e-03 1.299215040816e-03 1.280114805091e-03 1.308806138896e-03 1.421573186909e-03 1.617327529402e-03 1.640253508373e-03 -6.673700226410e-04 2.592964443102e-03 2.110940807615e-03 1.203661777987e-03 8.718721160292e-04 6.536690902371e-04 4.634568116249e-04 2.732480775418e-04 7.206478692397e-05 -1.284168276530e-04 -2.272342444747e-04 -2.306085248577e-04 
        </DataArray>
        <DataArray type="Float64" Name="STRESS_ZZ" format="ascii">
          -1.826695101289e-01 -1.610729287541e-01 -1.401118837024e-01 -1.197305030572e-01 -9.984286098551e-02 -8.033636562294e-02 -6.107629707195e-02 -4.190884815330e-02 -2.266182351722e-02 -3.142215473797e-03 1.684229612921e-02 -1.823324892131e-01 -1.607488667606e-01 -1.398159385102e-01 -1.194784667815e-01 -9.964799809609e-02 -8.020943002693e-02 -6.102638162066e-02 -4.194468998136e-02 -2.279308292253e-02 -3.380234623997e-03 1.648487463701e-02 -1.813143466753e-01 -1.597606410955e-01 -1.389136061962e-01 -1.187106787376e-01 -9.905450329278e-02 -7.982151467696e-02 -6.086986886761e-02 -4.204434837276e-02 -2.317698927970e-02 -4.082554085240e-03 1.542525325832e-02 -1.795528765204e-01 -1.580514238490e-01 -1.373553818621e-01 -1.173876714047e-01 -9.803224413977e-02 -7.914841572674e-02 -6.058360407956e-02 -4.218085557112e-02 -2.377949996364e-02 -5.208041662521e-03 1.370716244854e-02 -1.769394635051e-01 -1.555190580600e-01 -1.350556578013e-01 -1.154446898925e-01 -9.653522731915e-02 -7.815568133161e-02 -6.013488486499e-02 -4.231343955608e-02 -2.454447647276e-02 -6.683385090760e-03 1.141508947208e-02 -1.733036850723e-01 -1.520054007463e-01 -1.318881033118e-01 -1.127945408747e-01 -9.450974337066e-02 -7.680915246483e-02 -5.949200482218e-02 -4.239578319048e-02 -2.539670827992e-02 -8.397365549740e-03 8.691610989702e-03 -1.683841452227e-01 -1.472738927066e-01 -1.276789112388e-01 -1.093354937174e-01 -9.191002130570e-02 -7.509280488398e-02 -5.864190491331e-02 -4.239164696288e-02 -2.625130855044e-02 -1.019726942261e-02 5.760216610868e-03 -1.617660223202e-01 -1.409651134719e-01 -1.222019365710e-01 -1.049739740017e-01 -8.872697103206e-02 -7.303516194005e-02 -5.761568850205e-02 -4.230168222556e-02 -2.703736730353e-02 -1.189536523327e-02 2.951057349747e-03 -1.527267793416e-01 -1.325040146021e-01 -1.152057260401e-01 -9.968826725691e-02 -8.503509007394e-02 -7.074030812435e-02 -5.651766939338e-02 -4.220384595972e-02 -2.775176360954e-02 -1.330709216373e-02 7.252243037514e-04 -1.396852800528e-01 -1.209591058135e-01 -1.066347814401e-01 -9.366503487664e-02 -8.104588568666e-02 -6.840857762721e-02 -5.554361809467e-02 -4.229879694931e-02 -2.856731688682e-02 -1.439824628377e-02 -3.047888273652e-04 -1.164454931568e-01 -1.061872910975e-01 -9.715237195635e-02 -8.737178489091e-02 -7.708937042287e-02 -6.629823180856e-02 -5.493683144396e-02 -4.288007727526e-02 -2.990249683168e-02 -1.561432391453e-02 -1.381157828264e-04 
        </DataArray>
        <DataArray type="Float64" Name="STRAIN_XX" format="ascii">
          9.504625752570e-03 8.201880424290e-03 7.017278526921e-03 5.936571641830e-03 4.938077405257e-03 3.995312606745e-03 3.078872711252e-03 2.157038454160e-03 1.194809763840e-03 1.515795340543e-04 -1.026115635170e-03 9.511118960395e-03 8.208832126323e-03 7.025813471244e-03 5.946995505542e-03 4.950028001722e-03 4.007999200069e-03 3.091539809250e-03 2.169490435831e-03 1.207873520330e-03 1.673623044317e-04 -1.004356306823e-03 9.533117177339e-03 8.232653563396e-03 7.054456445994e-03 5.981382409089e-03 4.988852630331e-03 4.048628787499e-03 3.131477014297e-03 2.207974219954e-03 1.247299665160e-03 2.141618193119e-04 -9.399313417719e-04 9.579165923837e-03 8.282129291306e-03 7.112548019690e-03 6.049241533711e-03 5.063502205471e-03 4.124815953879e-03 3.204342906748e-03 2.275746086524e-03 1.313698563670e-03 2.901692910380e-04 -8.357520445539e-04 9.664414597791e-03 8.372863250954e-03 7.216538985392e-03 6.167006199143e-03 5.188912199280e-03 4.248761175033e-03 3.318887723097e-03 2.377682312471e-03 1.407742928458e-03 3.919981518592e-04 -6.973662929061e-04 9.812368239364e-03 8.529207789322e-03 7.391847630382e-03 6.358990619763e-03 5.385622469678e-03 4.435828799415e-03 3.485235783445e-03 2.518963250532e-03 1.529483207448e-03 5.142109708284e-04 -5.339630785586e-04 1.005876922151e-02 8.788428025341e-03 7.676551505478e-03 6.658654888638e-03 5.678064768887e-03 4.700946420633e-03 3.710952970439e-03 2.702111158804e-03 1.676935306385e-03 6.487600664664e-04 -3.596334633979e-04 1.046014487702e-02 9.210026701629e-03 8.128464276987e-03 7.108936438919e-03 6.089201612973e-03 5.050908351578e-03 3.993357278754e-03 2.920957898581e-03 1.843098709255e-03 7.845243847142e-04 -1.945880889751e-04 1.111442006609e-02 9.898512435501e-03 8.836538525753e-03 7.754997618554e-03 6.626646759933e-03 5.470956295422e-03 4.307214832197e-03 3.149397026592e-03 2.008665439175e-03 9.068249576057e-04 -6.554156197728e-05 1.220883221492e-02 1.107843862625e-02 9.914196072383e-03 8.605807919753e-03 7.255571566804e-03 5.908364710476e-03 4.591085679412e-03 3.323474003630e-03 2.121022832689e-03 9.924799790376e-04 -2.711670487675e-06 1.475734525310e-02 1.309513763035e-02 1.128256003352e-02 9.542066583178e-03 7.867030584388e-03 6.263747458480e-03 4.742838615296e-03 3.323052286071e-03 2.036233396091e-03 9.324307059611e-04 -5.674291694842e-06 
        </DataArray>
        <DataArray type="Float64" Name="STRAIN_XY" format="ascii">
          1.057959664962e-08 -1.404172720210e-07 -3.354523660769e-07 -5.320219654046e-07 -7.343055830499e-07 -9.225334266523e-07 -1.074538418964e-06 -1.170862101439e-06 -1.204196857748e-06 -1.352953685596e-06 3.038931498443e-06 -4.402155473541e-07 -1.639551860956e-04 -3.124920146168e-04 -4.327152420169e-04 -5.162923868514e-04 -5.589560884293e-04 -5.586002085360e-04 -5.125221672652e-04 -4.145634205483e-04 -2.529095814331e-04 -8.721053890574e-06 -9.690904709716e-07 -3.280205073969e-04 -6.233772799998e-04 -8.599121681285e-04 -1.021470963402e-03 -1.100930654003e-03 -1.095836915904e-03 -1.002469620470e-03 -8.097844805986e-04 -4.944898222071e-04 -1.738570012651e-05 -1.594751103760e-06 -4.921485026077e-04 -9.308091016929e-04 -1.275124928270e-03 -1.502626420604e-03 -1.606505550199e-03 -1.587534933338e-03 -1.444265471701e-03 -1.163394309745e-03 -7.112652523393e-04 -2.582197814540e-05 -2.437993172121e-06 -6.566741244454e-04 -1.232236959722e-03 -1.669284492776e-03 -1.942466728400e-03 -2.050922124816e-03 -2.003929084789e-03 -1.806725787803e-03 -1.447680995479e-03 -8.855298596835e-04 -3.351696406830e-05 -3.706314560292e-06 -8.220012476531e-04 -1.522717088044e-03 -2.026967832362e-03 -2.314653318824e-03 -2.400060383979e-03 -2.307051989296e-03 -2.051552887638e-03 -1.628201837725e-03 -9.939327816248e-04 -3.940231034757e-05 -5.859434429824e-06 -9.878544652730e-04 -1.790088282874e-03 -2.317687530823e-03 -2.574884505063e-03 -2.604472680046e-03 -2.448667105987e-03 -2.134194851264e-03 -1.665257270463e-03 -1.007494557456e-03 -4.149047357454e-05 -1.010385367215e-05 -1.150846779730e-03 -2.001498216556e-03 -2.476176377103e-03 -2.644914875901e-03 -2.591117808371e-03 -2.369444277633e-03 -2.008828694215e-03 -1.520941679754e-03 -8.950144199330e-04 -3.618675328452e-05 -2.047817105737e-05 -1.295444649675e-03 -2.062536154167e-03 -2.361100234620e-03 -2.390175363331e-03 -2.255230965982e-03 -1.999760678649e-03 -1.637735134380e-03 -1.176049477185e-03 -6.353437467285e-04 -1.661609408204e-05 -6.456822352405e-05 -1.350612508906e-03 -1.677541773273e-03 -1.696750535895e-03 -1.609096210744e-03 -1.461110759517e-03 -1.259909127172e-03 -9.961036661350e-04 -6.564034300534e-04 -2.588340025412e-04 3.050715958442e-05 -2.760044002035e-04 -2.859787943820e-04 -1.467885739880e-04 -9.993273599220e-05 -7.612648339417e-05 -6.113099214815e-05 -4.930963085840e-05 -3.605767035736e-05 -1.407357809444e-05 3.155071800118e-05 3.899073650067e-05 
        </DataArray>
        <DataArray type="Float64" Name="STRAIN_YY" format="ascii">
          7.155657538374e-03 7.067190358685e-03 6.808123895244e-03 6.397319193127e-03 5.863551642232e-03 5.242598181640e-03 4.574983187669e-03 3.905120902970e-03 3.282223842582e-03 2.762829165637e-03 2.416273410914e-03 7.176981929955e-03 7.086986630718e-03 6.824016173132e-03 6.407698323605e-03 5.867684966799e-03 5.240388812113e-03 4.566436095173e-03 3.889710548190e-03 3.258325976448e-03 2.727400370164e-03 2.365012626068e-03 7.239020874856e-03 7.144733026323e-03 6.869851421129e-03 6.436684401460e-03 5.877847210844e-03 5.231777634522e-03 4.539417403077e-03 3.843000992077e-03 3.187212322773e-03 2.622631629911e-03 2.213126848808e-03 7.338363315750e-03 7.236335547330e-03 6.940375189293e-03 6.478025882087e-03 5.887574581667e-03 5.211147841811e-03 4.490179715353e-03 3.763961864691e-03 3.071082383683e-03 2.453726770854e-03 1.967136881576e-03 7.468824922419e-03 7.354622255975e-03 7.026202717495e-03 6.520634293860e-03 5.885727880988e-03 5.169142602476e-03 4.412672040525e-03 3.651082198716e-03 2.913897100682e-03 2.230123531829e-03 1.639564154094e-03 7.620967278477e-03 7.488293876835e-03 7.112343014500e-03 6.547392331846e-03 5.856200412688e-03 5.093217043289e-03 4.299387094822e-03 3.503004643212e-03 2.721813878879e-03 1.966439309896e-03 1.251365890407e-03 7.780623553757e-03 7.619610812348e-03 7.175064516860e-03 6.533236717227e-03 5.778338347412e-03 4.969766206522e-03 4.143836884433e-03 3.320198137854e-03 2.503823344915e-03 1.683326719990e-03 8.350799138188e-04 7.925505661627e-03 7.718736771307e-03 7.175219495710e-03 6.442953619671e-03 5.629929462420e-03 4.789641470950e-03 3.946136152919e-03 3.108777058934e-03 2.272778902107e-03 1.407402112608e-03 4.381674257797e-04 8.017326718416e-03 7.728627452088e-03 7.044610243139e-03 6.233172996749e-03 5.397210997717e-03 4.559010032528e-03 3.722908748129e-03 2.888413305247e-03 2.048246127882e-03 1.168578047044e-03 1.254013457790e-04 7.999355780719e-03 7.501614367695e-03 6.674395742858e-03 5.879518384080e-03 5.097553854558e-03 4.314061912476e-03 3.519435785887e-03 2.706499103671e-03 1.868573225766e-03 9.928595109421e-04 -2.244550256469e-05 7.369047375230e-03 6.704176260793e-03 6.088706850221e-03 5.462702576620e-03 4.812664350811e-03 4.132866438392e-03 3.417766827522e-03 2.658942127659e-03 1.843157333583e-03 9.525341224319e-04 -5.725741173367e-06 
        </DataArray>
        <DataArray type="Float64" Name="STRAIN_ZZ" format="ascii">
          0.000000000000e+00 0.000000000000e+00 0.000000000000e+00 0.000000000000e+00 0.000000000000e+00 0.000000000000e+00 0.000000000000e+00 0.000000000000e+00 0.000000000000e+00 0.000000000000e+00 0.000000000000e+00 0.000000000000e+00 0.000000000000e+00 0.000000000000e+00 0.000000000000e+00 0.000000000000e+00 0.000000000000e+00 0.000000000000e+00 0.000000000000e+00 0.000000000000e+00 0.000000000000e+00 0.000000000000e+00 0.000000000000e+00 0.000000000000e+00 0.000000000000e+00 0.000000000000e+00 0.000000000000e+00 0.000000000000e+00 0.000000000000e+00 0.000000000000e+00 0.000000000000e+00 0.000000000000e+00 0.000000000000e+00 0.000000000000e+00 0.000000000000e+00 0.000000000000e+00 0.000000000000e+00 0.000000000000e+00 0.000000000000e+00 0.000000000000e+00 0.000000000000e+00 0.000000000000e+00 0.000000000000e+00 0.000000000000e+00 0.000000000000e+00 0.000000000000e+00 0.000000000000e+00 0.000000000000e+00 0.000000000000e+00 0.000000000000e+00 0.000000000000e+00 0.000000000000e+00 0.000000000000e+00 0.000000000000e+00 0.000000000000e+00 0.000000000000e+00 0.000000000000e+00 0.000000000000e+00 0.000000000000e+00 0.000000000000e+00 0.000000000000e+00 0.000000000000e+00 0.000000000000e+00 0.000000000000e+00 0.000000000000e+00 0.000000000000e+00 0.000000000000e+00 0.000000000000e+00 0.000000000000e+00 0.000000000000e+00 0.000000000000e+00 0.000000000000e+00 0.000000000000e+00 0.000000000000e+00 0.000000000000e+00 0.000000000000e+00 0.000000000000e+00 0.000000000000e+00 0.000000000000e+00 0.000000000000e+00 0.000000000000e+00 0.000000000000e+00 0.000000000000e+00 0.000000000000e+00 0.000000000000e+00 0.000000000000e+00 0.000000000000e+00 0.000000000000e+00 0.000000000000e+00 0.000000000000e+00 0.000000000000e+00 0.000000000000e+00 0.000000000000e+00 0.000000000000e+00 0.000000000000e+00 0.000000000000e+00 0.000000000000e+00 0.000000000000e+00 0.000000000000e+00 0.000000000000e+00 0.000000000000e+00 0.000000000000e+00 0.000000000000e+00 0.000000000000e+00 0.000000000000e+00 0.000000000000e+00 0.000000000000e+00 0.000000000000e+00 0.000000000000e+00 0.000000000000e+00 0.000000000000e+00 0.000000000000e+00 0.000000000000e+00 0.000000000000e+00 0.000000000000e+00 0.000000000000e+00 0.000000000000e+00 0.000000000000e+00 0.000000000000e+00 0.000000000000e+00 0.000000000000e+00 
        </DataArray>
        <DataArray type="Float64" Name="STRAIN_PLS" format="ascii">
          0.000000000000e+00 0.000000000000e+00 0.000000000000e+00 0.000000000000e+00 0.000000000000e+00 0.000000000000e+00 0.000000000000e+00 0.000000000000e+00 0.000000000000e+00 0.000000000000e+00 0.000000000000e+00 0.000000000000e+00 0.000000000000e+00 0.000000000000e+00 0.000000000000e+00 0.000000000000e+00 0.000000000000e+00 0.000000000000e+00 0.000000000000e+00 0.000000000000e+00 0.000000000000e+00 0.000000000000e+00 0.000000000000e+00 0.000000000000e+00 0.000000000000e+00 0.000000000000e+00 0.000000000000e+00 0.000000000000e+00 0.000000000000e+00 0.000000000000e+00 0.000000000000e+00 0.000000000000e+00 0.000000000000e+00 0.000000000000e+00 0.000000000000e+00 0.000000000000e+00 0.000000000000e+00 0.000000000000e+00 0.000000000000e+00 0.000000000000e+00 0.000000000000e+00 0.000000000000e+00 0.000000000000e+00 0.000000000000e+00 0.000000000000e+00 0.000000000000e+00 0.000000000000e+00 0.000000000000e+00 0.000000000000e+00 0.000000000000e+00 0.000000000000e+00 0.000000000000e+00 0.000000000000e+00 0.000000000000e+00 0.000000000000e+00 0.000000000000e+00 0.000000000000e+00 0.000000000000e+00 0.000000000000e+00 0.000000000000e+00 0.000000000000e+00 0.000000000000e+00 0.000000000000e+00 0.000000000000e+00 0.000000000000e+00 0.000000000000e+00 0.000000000000e+00 0.000000000000e+00 0.000000000000e+00 0.000000000000e+00 0.000000000000e+00 0.000000000000e+00 0.000000000000e+00 0.000000000000e+00 0.000000000000e+00 0.000000000000e+00 0.000000000000e+00 0.000000000000e+00 0.000000000000e+00 0.000000000000e+00 0.000000000000e+00 0.000000000000e+00 0.000000000000e+00 0.000000000000e+00 0.000000000000e+00 0.000000000000e+00 0.000000000000e+00 0.000000000000e+00 0.000000000000e+00 0.000000000000e+00 0.000000000000e+00 0.000000000000e+00 0.000000000000e+00 0.000000000000e+00 0.000000000000e+00 0.000000000000e+00 0.000000000000e+00 0.000000000000e+00 0.000000000000e+00 0.000000000000e+00 0.000000000000e+00 0.000000000000e+00 0.000000000000e+00 0.000000000000e+00 0.000000000000e+00 0.000000000000e+00 0.000000000000e+00 0.000000000000e+00 0.000000000000e+00 0.000000000000e+00 0.000000000000e+00 0.000000000000e+00 0.000000000000e+00 0.000000000000e+00 0.000000000000e+00 0.000000000000e+00 0.000000000000e+00 0.000000000000e+00 0.000000000000e+00 0.000000000000e+00 0.000000000000e+00 
        </DataArray>
        <DataArray type="Float64" Name="DILATANCY" format="ascii">
          0.000000000000e+00 0.000000000000e+00 0.000000000000e+00 0.000000000000e+00 0.000000000000e+00 0.000000000000e+00 0.000000000000e+00 0.000000000000e+00 0.000000000000e+00 0.000000000000e+00 0.000000000000e+00 0.000000000000e+00 0.000000000000e+00 0.000000000000e+00 0.000000000000e+00 0.000000000000e+00 0.000000000000e+00 0.000000000000e+00 0.000000000000e+00 0.000000000000e+00 0.000000000000e+00 0.000000000000e+00 0.000000000000e+00 0.000000000000e+00 0.000000000000e+00 0.000000000000e+00 0.000000000000e+00 0.000000000000e+00 0.000000000000e+00 0.000000000000e+00 0.000000000000e+00 0.000000000000e+00 0.000000000000e+00 0.000000000000e+00 0.000000000000e+00 0.000000000000e+00 0.000000000000e+00 0.000000000000e+00 0.000000000000e+00 0.000000000000e+00 0.000000000000e+00 0.000000000000e+00 0.000000000000e+00 0.000000000000e+00 0.000000000000e+00 0.000000000000e+00 0.000000000000e+00 0.000000000000e+00 0.000000000000e+00 0.000000000000e+00 0.000000000000e+00 0.000000000000e+00 0.000000000000e+00 0.000000000000e+00 0.000000000000e+00 0.000000000000e+00 0.000000000000e+00 0.000000000000e+00 0.000000000000e+00 0.000000000000e+00 0.000000000000e+00 0.000000000000e+00 0.000000000000e+00 0.000000000000e+00 0.000000000000e+00 0.000000000000e+00 0.000000000000e+00 0.000000000000e+00 0.000000000000e+00 0.000000000000e+00 0.000000000000e+00 0.000000000000e+00 0.000000000000e+00 0.000000000000e+00 0.000000000000e+00 0.000000000000e+00 0.000000000000e+00 0.000000000000e+00 0.000000000000e+00 0.000000000000e+00 0.000000000000e+00 0.000000000000e+00 0.000000000000e+00 0.000000000000e+00 0.000000000000e+00 0.000000000000e+00 0.000000000000e+00 0.000000000000e+00 0.000000000000e+00 0.000000000000e+00 0.000000000000e+00 0.000000000000e+00 0.000000000000e+00 0.000000000000e+00 0.000000000000e+00 0.000000000000e+00 0.000000000000e+00 0.000000000000e+00 0.000000000000e+00 0.000000000000e+00 0.000000000000e+00 0.000000000000e+00 0.000000000000e+00 0.000000000000e+00 0.000000000000e+00 0.000000000000e+00 0.000000000000e+00 0.000000000000e+00 0.000000000000e+00 0.000000000000e+00 0.000000000000e+00 0.000000000000e+00 0.000000000000e+00 0.000000000000e+00 0.000000000000e+00 0.000000000000e+00 0.000000000000e+00 0.000000000000e+00 0.000000000000e+00 0.000000000000e+00 0.000000000000e+00 
        </DataArray>
        <DataArray type="Float64" Name="NODAL_VELOCITY1" NumberOfComponents="3" format="ascii">
          8.840532037657e-01 -7.028221746322e-02 0.000000000000e+00 9.917022499353e-01 -5.013662912187e-02 0.000000000000e+00 9.799448224898e-01 -1.096396935365e-02 0.000000000000e+00 9.855160474406e-01 -4.943902775423e-03 0.000000000000e+00 9.895889203928e-01 -2.810097235597e-03 0.000000000000e+00 9.923788778895e-01 -1.783224084098e-03 0.000000000000e+00 9.942888928860e-01 -1.184437789749e-03 0.000000000000e+00 9.955789603711e-01 -7.887796930772e-04 0.000000000000e+00 9.964068398111e-01 -5.023072949711e-04 0.000000000000e+00 9.968664943977e-01 -2.771557024564e-04 0.000000000000e+00 9.971975581524e-01 -1.973569449750e-04 0.000000000000e+00 9.758970878232e-01 -6.121362345407e-02 0.000000000000e+00 9.572220439100e-01 -2.625643513731e-02 0.000000000000e+00 9.804108867928e-01 -1.355285708435e-02 0.000000000000e+00 9.863598634343e-01 -7.321441913603e-03 0.000000000000e+00 9.901793932953e-01 -4.503488367625e-03 0.000000000000e+00 9.927806190808e-01 -2.963300552279e-03 0.000000000000e+00 9.945750427175e-01 -2.001302920317e-03 0.000000000000e+00 9.957941269946e-01 -1.340270630173e-03 0.000000000000e+00 9.965791166961e-01 -8.503111659299e-04 0.000000000000e+00 9.970157746016e-01 -4.591187169314e-04 0.000000000000e+00 9.973298843803e-01 -2.686334850641e-04 0.000000000000e+00 9.913155326770e-01 -3.207317758334e-02 0.000000000000e+00 9.866971695199e-01 -2.550760606288e-02 0.000000000000e+00 9.855187577788e-01 -1.673472260393e-02 0.000000000000e+00 9.893078965710e-01 -1.096687169607e-02 0.000000000000e+00 9.920059662268e-01 -7.354109675904e-03 0.000000000000e+00 9.940029998230e-01 -5.048763361893e-03 0.000000000000e+00 9.954449598107e-01 -3.481938496303e-03 0.000000000000e+00 9.964482572857e-01 -2.353974947639e-03 0.000000000000e+00 9.971018048089e-01 -1.496114386341e-03 0.000000000000e+00 9.974666960956e-01 -8.010677477041e-04 0.000000000000e+00 9.977803953856e-01 -4.209420063452e-04 0.000000000000e+00 9.961382469702e-01 -2.347374247958e-02 0.000000000000e+00 9.942074063233e-01 -2.111228496075e-02 0.000000000000e+00 9.924782917960e-01 -1.678445438956e-02 0.000000000000e+00 9.931270112108e-01 -1.245671219628e-02 0.000000000000e+00 9.945229988781e-01 -9.027505838439e-03 0.000000000000e+00 9.957736801544e-01 -6.461945034835e-03 0.000000000000e+00 9.967456488552e-01 -4.554363179779e-03 0.000000000000e+00 9.974443221503e-01 -3.112082597357e-03 0.000000000000e+00 9.979060049203e-01 -1.986184920276e-03 0.000000000000e+00 9.981646796872e-01 -1.061398046245e-03 0.000000000000e+00 9.984476165852e-01 -5.309557895398e-04 0.000000000000e+00 9.983461360761e-01 -2.009999434859e-02 0.000000000000e+00 9.976299129417e-01 -1.885802664685e-02 0.000000000000e+00 9.967528430239e-01 -1.616534931200e-02 0.000000000000e+00 9.967808021818e-01 -1.289962890186e-02 0.000000000000e+00 9.972782095298e-01 -9.815483963859e-03 0.000000000000e+00 9.978483274269e-01 -7.230387258218e-03 0.000000000000e+00 9.983242594385e-01 -5.174583551957e-03 0.000000000000e+00 9.986754382234e-01 -3.562895906604e-03 0.000000000000e+00 9.989094333203e-01 -2.280821806792e-03 0.000000000000e+00 9.990398068216e-01 -1.217511088173e-03 0.000000000000e+00 9.992657527845e-01 -5.892137938530e-04 0.000000000000e+00 9.997437728145e-01 -1.925094306527e-02 0.000000000000e+00 9.998937508135e-01 -1.828477860671e-02 0.000000000000e+00 9.999729495885e-01 -1.599337273373e-02 0.000000000000e+00 1.000027708717e+00 -1.301366355023e-02 0.000000000000e+00 1.000046595992e+00 -1.003422994639e-02 0.000000000000e+00 1.000043898885e+00 -7.444461750088e-03 0.000000000000e+00 1.000034312133e+00 -5.346481777658e-03 0.000000000000e+00 1.000024188589e+00 -3.686727798854e-03 0.000000000000e+00 1.000015045153e+00 -2.360246772499e-03 0.000000000000e+00 1.000006890188e+00 -1.257267213026e-03 0.000000000000e+00 1.000155097581e+00 -5.911401188985e-04 0.000000000000e+00 1.001005149104e+00 -2.040338289678e-02 0.000000000000e+00 1.002137004106e+00 -1.925343789038e-02 0.000000000000e+00 1.003233458331e+00 -1.647605829084e-02 0.000000000000e+00 1.003317965174e+00 -1.301744666692e-02 0.000000000000e+00 1.002834091546e+00 -9.777723511319e-03 0.000000000000e+00 1.002243341712e+00 -7.129508886495e-03 0.000000000000e+00 1.001743973758e+00 -5.070993309755e-03 0.000000000000e+00 1.001371657097e+00 -3.478125832900e-03 0.000000000000e+00 1.001119577388e+00 -2.219139795265e-03 0.000000000000e+00 1.000973421905e+00 -1.177595020518e-03 0.000000000000e+00 1.001029524961e+00 -5.365659779626e-04 0.000000000000e+00 1.002598082112e+00 -2.418986888566e-02 0.000000000000e+00 1.005532591026e+00 -2.217401476453e-02 0.000000000000e+00 1.007727091122e+00 -1.753485704459e-02 0.000000000000e+00 1.007117863507e+00 -1.260378870572e-02 0.000000000000e+00 1.005621345738e+00 -8.832231539358e-03 0.000000000000e+00 1.004322180195e+00 -6.208488624288e-03 0.000000000000e+00 1.003318931277e+00 -4.331877844970e-03 0.000000000000e+00 1.002598147949e+00 -2.940988767076e-03 0.000000000000e+00 1.002119548050e+00 -1.865149052977e-03 0.000000000000e+00 1.001846847879e+00 -9.841178364510e-04 0.000000000000e+00 1.001804152219e+00 -4.297297996888e-04 0.000000000000e+00 1.004979250814e+00 -3.346020955513e-02 0.000000000000e+00 1.013472102586e+00 -2.845621165476e-02 0.000000000000e+00 1.015650107565e+00 -1.820908347194e-02 0.000000000000e+00 1.010957497472e+00 -1.051930361485e-02 0.000000000000e+00 1.008140707375e+00 -6.788988891309e-03 0.000000000000e+00 1.006082009663e+00 -4.580746051239e-03 0.000000000000e+00 1.004607735307e+00 -3.130125292668e-03 0.000000000000e+00 1.003584749464e+00 -2.101357439989e-03 0.000000000000e+00 1.002917548099e+00 -1.323153197337e-03 0.000000000000e+00 1.002541929897e+00 -6.923856164225e-04 0.000000000000e+00 1.002403060196e+00 -2.797692319112e-04 0.000000000000e+00 1.002300068255e+00 -6.240167408473e-02 0.000000000000e+00 1.054721581626e+00 -4.224924892288e-02 0.000000000000e+00 1.019071885540e+00 -1.030777159985e-02 0.000000000000e+00 1.013836885699e+00 -5.657227818223e-03 0.000000000000e+00 1.009911457318e+00 -3.468378856033e-03 0.000000000000e+00 1.007270387068e+00 -2.286027077997e-03 0.000000000000e+00 1.005455078153e+00 -1.542169471746e-03 0.000000000000e+00 1.004224143417e+00 -1.026663679942e-03 0.000000000000e+00 1.003431402943e+00 -6.408699557955e-04 0.000000000000e+00 1.002988878676e+00 -3.291447794007e-04 0.000000000000e+00 1.002766803260e+00 -1.009152487963e-04 0.000000000000e+00 1.105555995614e+00 -1.035097107790e-01 0.000000000000e+00 1.007142237782e+00 -1.618345159942e-02 0.000000000000e+00 1.022774672889e+00 -4.821095879732e-03 0.000000000000e+00 1.015023665281e+00 -2.548904885846e-03 0.000000000000e+00 1.010632737907e+00 -1.551156315501e-03 0.000000000000e+00 1.007728739358e+00 -1.016569296066e-03 0.000000000000e+00 1.005772131038e+00 -6.828371455579e-04 0.000000000000e+00 1.004459048043e+00 -4.522654049887e-04 0.000000000000e+00 1.003617965350e+00 -2.796189239098e-04 0.000000000000e+00 1.003149721208e+00 -1.396031262737e-04 0.000000000000e+00 1.002915336728e+00 -2.030008680934e-05 0.000000000000e+00 
        </DataArray>
        <DataArray type="Float64" Name="DISPLACEMENT" NumberOfComponents="3" format="ascii">
          0.000000000000e+00 0.000000000000e+00 0.000000000000e+00 8.853765212025e-04 0.000000000000e+00 0.000000000000e+00 1.646398597769e-03 0.000000000000e+00 0.000000000000e+00 2.294177517374e-03 0.000000000000e+00 0.000000000000e+00 2.838017707259e-03 0.000000000000e+00 0.000000000000e+00 3.284808461560e-03 0.000000000000e+00 0.000000000000e+00 3.638641755608e-03 0.000000000000e+00 0.000000000000e+00 3.900556256506e-03 0.000000000000e+00 0.000000000000e+00 4.068263150871e-03 0.000000000000e+00 0.000000000000e+00 4.135699661109e-03 0.000000000000e+00 0.000000000000e+00 4.092232969634e-03 0.000000000000e+00 0.000000000000e+00 0.000000000000e+00 7.157414781913e-04 0.000000000000e+00 8.860615826038e-04 7.068505974350e-04 0.000000000000e+00 1.647872919682e-03 6.808424364387e-04 0.000000000000e+00 2.296615373004e-03 6.396297884717e-04 0.000000000000e+00 2.841590257739e-03 5.861198415308e-04 0.000000000000e+00 3.289627665027e-03 5.239108260478e-04 0.000000000000e+00 3.644740797331e-03 4.570559056396e-04 0.000000000000e+00 3.907919561984e-03 3.899744083812e-04 0.000000000000e+00 4.076905779357e-03 3.275452032043e-04 0.000000000000e+00 4.145783173475e-03 2.753686033116e-04 0.000000000000e+00 4.104189042817e-03 2.401312844176e-04 0.000000000000e+00 0.000000000000e+00 1.435622044853e-03 0.000000000000e+00 8.883932717225e-04 1.417553391554e-03 0.000000000000e+00 1.652872219847e-03 1.364754348845e-03 0.000000000000e+00 2.304814455109e-03 1.281220096370e-03 0.000000000000e+00 2.853498519247e-03 1.172953396861e-03 0.000000000000e+00 3.305552887568e-03 1.047280879689e-03 0.000000000000e+00 3.664730159886e-03 9.123285958244e-04 0.000000000000e+00 3.931854248462e-03 7.768268527821e-04 0.000000000000e+00 4.104746245482e-03 6.503095839362e-04 0.000000000000e+00 4.177930204244e-03 5.436846641637e-04 0.000000000000e+00 4.141882261100e-03 4.700579675684e-04 0.000000000000e+00 0.000000000000e+00 2.163512397123e-03 0.000000000000e+00 8.932413059355e-04 2.135670986609e-03 0.000000000000e+00 1.663177297116e-03 2.054449930099e-03 0.000000000000e+00 2.321501948381e-03 1.926313492951e-03 0.000000000000e+00 2.877394532393e-03 1.760782943595e-03 0.000000000000e+00 3.337063250493e-03 1.569193306342e-03 0.000000000000e+00 3.703749573869e-03 1.363781957068e-03 0.000000000000e+00 3.977942927726e-03 1.157361799050e-03 0.000000000000e+00 4.157559087579e-03 9.636502105411e-04 0.000000000000e+00 4.237855009430e-03 7.982258133089e-04 0.000000000000e+00 4.210786324188e-03 6.799877616295e-04 0.000000000000e+00 0.000000000000e+00 2.902794145676e-03 0.000000000000e+00 9.021509098650e-04 2.864198028432e-03 0.000000000000e+00 1.681946362454e-03 2.751912093880e-03 0.000000000000e+00 2.351489184857e-03 2.575591104956e-03 0.000000000000e+00 2.919660350781e-03 2.349018418490e-03 0.000000000000e+00 3.391892493724e-03 2.087990229656e-03 0.000000000000e+00 3.770571341487e-03 1.808896411610e-03 0.000000000000e+00 4.055631232197e-03 1.528260808151e-03 0.000000000000e+00 4.245063530844e-03 1.263231220115e-03 0.000000000000e+00 4.335140830334e-03 1.032991067906e-03 0.000000000000e+00 4.320030308314e-03 8.610625547397e-04 0.000000000000e+00 0.000000000000e+00 3.656053496684e-03 0.000000000000e+00 9.175316781325e-04 3.605195981534e-03 0.000000000000e+00 1.714100014146e-03 3.457907404275e-03 0.000000000000e+00 2.402200049529e-03 3.228335158717e-03 0.000000000000e+00 2.989962153426e-03 2.935720260714e-03 0.000000000000e+00 3.481486520756e-03 2.600928914862e-03 0.000000000000e+00 3.877894220406e-03 2.244482731028e-03 0.000000000000e+00 4.178364488070e-03 1.886068967748e-03 0.000000000000e+00 4.380957048719e-03 1.545224334670e-03 0.000000000000e+00 4.483215846346e-03 1.243169448078e-03 0.000000000000e+00 4.482300953533e-03 1.006074543221e-03 0.000000000000e+00 0.000000000000e+00 4.424667929096e-03 0.000000000000e+00 9.430714479365e-04 4.359258183951e-03 0.000000000000e+00 1.767144438799e-03 4.171276257296e-03 0.000000000000e+00 2.484743909592e-03 3.881742734648e-03 0.000000000000e+00 3.102288809308e-03 3.517129058699e-03 0.000000000000e+00 3.621763937696e-03 3.103967470883e-03 0.000000000000e+00 4.042718404496e-03 2.666657700427e-03 0.000000000000e+00 4.363609822199e-03 2.227296698162e-03 0.000000000000e+00 4.582711975289e-03 1.806568426318e-03 0.000000000000e+00 4.699051077806e-03 1.425705532919e-03 0.000000000000e+00 4.713450626913e-03 1.110467019426e-03 0.000000000000e+00 0.000000000000e+00 5.208129734863e-03 0.000000000000e+00 9.846673432496e-04 5.124569050704e-03 0.000000000000e+00 1.852962294981e-03 4.887754439546e-03 0.000000000000e+00 2.616054517530e-03 4.530049136668e-03 0.000000000000e+00 3.276800238443e-03 4.087360279478e-03 0.000000000000e+00 3.834295436313e-03 3.591920572159e-03 0.000000000000e+00 4.286752843060e-03 3.071212585082e-03 0.000000000000e+00 4.632570284864e-03 2.548793719390e-03 0.000000000000e+00 4.870821793552e-03 2.045323384844e-03 0.000000000000e+00 5.002226688608e-03 1.579919756427e-03 0.000000000000e+00 5.031482469715e-03 1.173673159346e-03 0.000000000000e+00 0.000000000000e+00 6.002719641428e-03 0.000000000000e+00 1.052765020086e-03 5.894909578095e-03 0.000000000000e+00 1.991916234191e-03 5.597888962273e-03 0.000000000000e+00 2.823024240930e-03 5.163648680026e-03 0.000000000000e+00 3.542825908462e-03 4.638716036386e-03 0.000000000000e+00 4.147946222537e-03 4.059412826651e-03 0.000000000000e+00 4.636797211788e-03 3.454740652072e-03 0.000000000000e+00 5.009400289925e-03 2.848696480089e-03 0.000000000000e+00 5.267051777557e-03 2.261234032625e-03 0.000000000000e+00 5.412735589459e-03 1.708039308213e-03 0.000000000000e+00 5.454318462157e-03 1.200768163148e-03 0.000000000000e+00 0.000000000000e+00 6.798357817106e-03 0.000000000000e+00 1.169700675739e-03 6.654507671417e-03 0.000000000000e+00 2.222788319997e-03 6.283937378986e-03 0.000000000000e+00 3.149588812940e-03 5.769479685146e-03 0.000000000000e+00 3.942762429065e-03 5.163563799827e-03 0.000000000000e+00 4.600689196320e-03 4.503111096592e-03 0.000000000000e+00 5.125122803645e-03 3.816871227289e-03 0.000000000000e+00 5.520082953598e-03 3.128445070335e-03 0.000000000000e+00 5.791372645369e-03 2.457009999091e-03 0.000000000000e+00 5.946312054117e-03 1.815450026745e-03 0.000000000000e+00 5.995068863349e-03 1.204132762525e-03 0.000000000000e+00 0.000000000000e+00 7.566434298190e-03 0.000000000000e+00 1.403580275843e-03 7.363791084741e-03 0.000000000000e+00 2.623246223915e-03 6.921718208076e-03 0.000000000000e+00 3.664602293096e-03 6.336287365075e-03 0.000000000000e+00 4.534715521974e-03 5.658805629981e-03 0.000000000000e+00 5.240650105120e-03 4.925194292560e-03 0.000000000000e+00 5.790149741812e-03 4.163436332951e-03 0.000000000000e+00 6.192354354734e-03 3.396339086399e-03 0.000000000000e+00 6.458905657524e-03 2.642067511232e-03 0.000000000000e+00 6.605480919158e-03 1.911983458305e-03 0.000000000000e+00 6.651419386584e-03 1.202319824611e-03 0.000000000000e+00 
        </DataArray>
        <DataArray type="Float64" Name="DENSITY" format="ascii">
          8.917079500000e-07 9.025371918912e-07 9.133664299831e-07 9.241956609447e-07 9.350248822676e-07 9.458540924783e-07 9.566832912229e-07 9.675124792442e-07 9.783416582692e-07 9.891708308245e-07 1.000000000000e-06 8.917079500000e-07 9.025371918912e-07 9.133664299831e-07 9.241956609447e-07 9.350248822676e-07 9.458540924783e-07 9.566832912229e-07 9.675124792442e-07 9.783416582692e-07 9.891708308245e-07 1.000000000000e-06 8.917079500000e-07 9.025371918912e-07 9.133664299831e-07 9.241956609447e-07 9.350248822676e-07 9.458540924783e-07 9.566832912229e-07 9.675124792442e-07 9.783416582692e-07 9.891708308245e-07 1.000000000000e-06 8.917079500000e-07 9.025371918912e-07 9.133664299831e-07 9.241956609447e-07 9.350248822676e-07 9.458540924783e-07 9.566832912229e-07 9.675124792442e-07 9.783416582692e-07 9.891708308245e-07 1.000000000000e-06 8.917079500000e-07 9.025371918912e-07 9.133664299831e-07 9.241956609447e-07 9.350248822676e-07 9.458540924783e-07 9.566832912229e-07 9.675124792442e-07 9.783416582692e-07 9.891708308245e-07 1.000000000000e-06 8.917079500000e-07 9.025371918912e-07 9.133664299831e-07 9.241956609447e-07 9.350248822676e-07 9.458540924783e-07 9.566832912229e-07 9.675124792442e-07 9.783416582692e-07 9.891708308245e-07 1.000000000000e-06 8.917079500000e-07 9.025371918912e-07 9.133664299831e-07 9.241956609447e-07 9.350248822676e-07 9.458540924783e-07 9.566832912229e-07 9.675124792442e-07 9.783416582692e-07 9.891708308245e-07 1.000000000000e-06 8.917079500000e-07 9.025371918912e-07 9.133664299831e-07 9.241956609447e-07 9.350248822676e-07 9.458540924783e-07 9.566832912229e-07 9.675124792442e-07 9.783416582692e-07 9.891708308245e-07 1.000000000000e-06 8.917079500000e-07 9.025371918912e-07 9.133664299831e-07 9.241956609447e-07 9.350248822676e-07 9.458540924783e-07 9.566832912229e-07 9.675124792442e-07 9.783416582692e-07 9.891708308245e-07 1.000000000000e-06 8.917079500000e-07 9.025371918912e-07 9.133664299831e-07 9.241956609447e-07 9.350248822676e-07 9.458540924783e-07 9.566832912229e-07 9.675124792442e-07 9.783416582692e-07 9.891708308245e-07 1.000000000000e-06 8.917079500000e-07 9.025371918912e-07 9.133664299831e-07 9.241956609447e-07 9.350248822676e-07 9.458540924783e-07 9.566832912229e-07 9.675124792442e-07 9.783416582692e-07 9.891708308245e-07 1.000000000000e-06 
        </DataArray>
        <DataArray type="Float64" Name="VISCOSITY" format="ascii">
          1.278000000000e-09 1.278000000000e-09 1.278000000000e-09 1.278000000000e-09 1.278000000000e-09 1.278000000000e-09 1.278000000000e-09 1.278000000000e-09 1.278000000000e-09 1.278000000000e-09 1.278000000000e-09 1.278000000000e-09 1.278000000000e-09 1.278000000000e-09 1.278000000000e-09 1.278000000000e-09 1.278000000000e-09 1.278000000000e-09 1.278000000000e-09 1.278000000000e-09 1.278000000000e-09 1.278000000000e-09 1.278000000000e-09 1.278000000000e-09 1.278000000000e-09 1.278000000000e-09 1.278000000000e-09 1.278000000000e-09 1.278000000000e-09 1.278000000000e-09 1.278000000000e-09 1.278000000000e-09 1.278000000000e-09 1.278000000000e-09 1.278000000000e-09 1.278000000000e-09 1.278000000000e-09 1.278000000000e-09 1.278000000000e-09 1.278000000000e-09 1.278000000000e-09 1.278000000000e-09 1.278000000000e-09 1.278000000000e-09 1.278000000000e-09 1.278000000000e-09 1.278000000000e-09 1.278000000000e-09 1.278000000000e-09 1.278000000000e-09 1.278000000000e-09 1.278000000000e-09 1.278000000000e-09 1.278000000000e-09 1.278000000000e-09 1.278000000000e-09 1.278000000000e-09 1.278000000000e-09 1.278000000000e-09 1.278000000000e-09 1.278000000000e-09 1.278000000000e-09 1.278000000000e-09 1.278000000000e-09 1.278000000000e-09 1.278000000000e-09 1.278000000000e-09 1.278000000000e-09 1.278000000000e-09 1.278000000000e-09 1.278000000000e-09 1.278000000000e-09 1.278000000000e-09 1.278000000000e-09 1.278000000000e-09 1.278000000000e-09 1.278000000000e-09 1.278000000000e-09 1.278000000000e-09 1.278000000000e-09 1.278000000000e-09 1.278000000000e-09 1.278000000000e-09 1.278000000000e-09 1.278000000000e-09 1.278000000000e-09 1.278000000000e-09 1.278000000000e-09 1.278000000000e-09 1.278000000000e-09 1.278000000000e-09 1.278000000000e-09 1.278000000000e-09 1.278000000000e-09 1.278000000000e-09 1.278000000000e-09 1.278000000000e-09 1.278000000000e-09 1.278000000000e-09 1.278000000000e-09 1.278000000000e-09 1.278000000000e-09 1.278000000000e-09 1.278000000000e-09 1.278000000000e-09 1.278000000000e-09 1.278000000000e-09 1.278000000000e-09 1.278000000000e-09 1.278000000000e-09 1.278000000000e-09 1.278000000000e-09 1.278000000000e-09 1.278000000000e-09 1.278000000000e-09 1.278000000000e-09 1.278000000000e-09 1.278000000000e-09 1.278000000000e-09 1.278000000000e-09 1.278000000000e-09 
        </DataArray>
        <DataArray type="Float64" Name="SPECIFIC_HEAT_CAPACITY" format="ascii">
          4.680000000000e+03 4.680000000000e+03 4.680000000000e+03 4.680000000000e+03 4.680000000000e+03 4.680000000000e+03 4.680000000000e+03 4.680000000000e+03 4.680000000000e+03 4.680000000000e+03 4.680000000000e+03 4.680000000000e+03 4.680000000000e+03 4.680000000000e+03 4.680000000000e+03 4.680000000000e+03 4.680000000000e+03 4.680000000000e+03 4.680000000000e+03 4.680000000000e+03 4.680000000000e+03 4.680000000000e+03 4.680000000000e+03 4.680000000000e+03 4.680000000000e+03 4.680000000000e+03 4.680000000000e+03 4.680000000000e+03 4.680000000000e+03 4.680000000000e+03 4.680000000000e+03 4.680000000000e+03 4.680000000000e+03 4.680000000000e+03 4.680000000000e+03 4.680000000000e+03 4.680000000000e+03 4.680000000000e+03 4.680000000000e+03 4.680000000000e+03 4.680000000000e+03 4.680000000000e+03 4.680000000000e+03 4.680000000000e+03 4.680000000000e+03 4.680000000000e+03 4.680000000000e+03 4.680000000000e+03 4.680000000000e+03 4.680000000000e+03 4.680000000000e+03 4.680000000000e+03 4.680000000000e+03 4.680000000000e+03 4.680000000000e+03 4.680000000000e+03 4.680000000000e+03 4.680000000000e+03 4.680000000000e+03 4.680000000000e+03 4.680000000000e+03 4.680000000000e+03 4.680000000000e+03 4.680000000000e+03 4.680000000000e+03 4.680000000000e+03 4.680000000000e+03 4.680000000000e+03 4.680000000000e+03 4.680000000000e+03 4.680000000000e+03 4.680000000000e+03 4.680000000000e+03 4.680000000000e+03 4.680000000000e+03 4.680000000000e+03 4.680000000000e+03 4.680000000000e+03 4.680000000000e+03 4.680000000000e+03 4.680000000000e+03 4.680000000000e+03 4.680000000000e+03 4.680000000000e+03 4.680000000000e+03 4.680000000000e+03 4.680000000000e+03 4.680000000000e+03 4.680000000000e+03 4.680000000000e+03 4.680000000000e+03 4.680000000000e+03 4.680000000000e+03 4.680000000000e+03 4.680000000000e+03 4.680000000000e+03 4.680000000000e+03 4.680000000000e+03 4.680000000000e+03 4.680000000000e+03 4.680000000000e+03 4.680000000000e+03 4.680000000000e+03 4.680000000000e+03 4.680000000000e+03 4.680000000000e+03 4.680000000000e+03 4.680000000000e+03 4.680000000000e+03 4.680000000000e+03 4.680000000000e+03 4.680000000000e+03 4.680000000000e+03 4.680000000000e+03 4.680000000000e+03 4.680000000000e+03 4.680000000000e+03 4.680000000000e+03 4.680000000000e+03 4.680000000000e+03 4.680000000000e+03 
        </DataArray>
        <DataArray type="Float64" Name="HEAT_CONDUCTIVITY" format="ascii">
          6.000000000000e-01 6.000000000000e-01 6.000000000000e-01 6.000000000000e-01 6.000000000000e-01 6.000000000000e-01 6.000000000000e-01 6.000000000000e-01 6.000000000000e-01 6.000000000000e-01 6.000000000000e-01 6.000000000000e-01 6.000000000000e-01 6.000000000000e-01 6.000000000000e-01 6.000000000000e-01 6.000000000000e-01 6.000000000000e-01 6.000000000000e-01 6.000000000000e-01 6.000000000000e-01 6.000000000000e-01 6.000000000000e-01 6.000000000000e-01 6.000000000000e-01 6.000000000000e-01 6.000000000000e-01 6.000000000000e-01 6.000000000000e-01 6.000000000000e-01 6.000000000000e-01 6.000000000000e-01 6.000000000000e-01 6.000000000000e-01 6.000000000000e-01 6.000000000000e-01 6.000000000000e-01 6.000000000000e-01 6.000000000000e-01 6.000000000000e-01 6.000000000000e-01 6.000000000000e-01 6.000000000000e-01 6.000000000000e-01 6.000000000000e-01 6.000000000000e-01 6.000000000000e-01 6.000000000000e-01 6.000000000000e-01 6.000000000000e-01 6.000000000000e-01 6.000000000000e-01 6.000000000000e-01 6.000000000000e-01 6.000000000000e-01 6.000000000000e-01 6.000000000000e-01 6.000000000000e-01 6.000000000000e-01 6.000000000000e-01 6.000000000000e-01 6.000000000000e-01 6.000000000000e-01 6.000000000000e-01 6.000000000000e-01 6.000000000000e-01 6.000000000000e-01 6.000000000000e-01 6.000000000000e-01 6.000000000000e-01 6.000000000000e-01 6.000000000000e-01 6.000000000000e-01 6.000000000000e-01 6.000000000000e-01 6.000000000000e-01 6.000000000000e-01 6.000000000000e-01 6.000000000000e-01 6.000000000000e-01 6.000000000000e-01 6.000000000000e-01 6.000000000000e-01 6.000000000000e-01 6.000000000000e-01 6.000000000000e-01 6.000000000000e-01 6.000000000000e-01 6.000000000000e-01 6.000000000000e-01 6.000000000000e-01 6.000000000000e-01 6.000000000000e-01 6.000000000000e-01 6.000000000000e-01 6.000000000000e-01 6.000000000000e-01 6.000000000000e-01 6.000000000000e-01 6.000000000000e-01 6.000000000000e-01 6.000000000000e-01 6.000000000000e-01 6.000000000000e-01 6.000000000000e-01 6.000000000000e-01 6.000000000000e-01 6.000000000000e-01 6.000000000000e-01 6.000000000000e-01 6.000000000000e-01 6.000000000000e-01 6.000000000000e-01 6.000000000000e-01 6.000000000000e-01 6.000000000000e-01 6.000000000000e-01 6.000000000000e-01 6.000000000000e-01 6.000000000000e-01 6.000000000000e-01 
        </DataArray>
      </PointData>
      <CellData>
        <DataArray type="Float64" Name="DENSITY" format="ascii">
          8.971225709456e-07 9.079518109372e-07 9.187810454639e-07 9.296102716061e-07 9.404394873730e-07 9.512686918506e-07 9.620978852336e-07 9.729270687567e-07 9.837562445468e-07 9.945854154123e-07 8.971225709456e-07 9.079518109372e-07 9.187810454639e-07 9.296102716061e-07 9.404394873730e-07 9.512686918506e-07 9.620978852336e-07 9.729270687567e-07 9.837562445468e-07 9.945854154123e-07 8.971225709456e-07 9.079518109372e-07 9.187810454639e-07 9.296102716061e-07 9.404394873730e-07 9.512686918506e-07 9.620978852336e-07 9.729270687567e-07 9.837562445468e-07 9.945854154123e-07 8.971225709456e-07 9.079518109372e-07 9.187810454639e-07 9.296102716061e-07 9.404394873730e-07 9.512686918506e-07 9.620978852336e-07 9.729270687567e-07 9.837562445468e-07 9.945854154123e-07 8.971225709456e-07 9.079518109372e-07 9.187810454639e-07 9.296102716061e-07 9.404394873730e-07 9.512686918506e-07 9.620978852336e-07 9.729270687567e-07 9.837562445468e-07 9.945854154123e-07 8.971225709456e-07 9.079518109372e-07 9.187810454639e-07 9.296102716061e-07 9.404394873730e-07 9.512686918506e-07 9.620978852336e-07 9.729270687567e-07 9.837562445468e-07 9.945854154123e-07 8.971225709456e-07 9.079518109372e-07 9.187810454639e-07 9.296102716061e-07 9.404394873730e-07 9.512686918506e-07 9.620978852336e-07 9.729270687567e-07 9.837562445468e-07 9.945854154123e-07 8.971225709456e-07 9.079518109372e-07 9.187810454639e-07 9.296102716061e-07 9.404394873730e-07 9.512686918506e-07 9.620978852336e-07 9.729270687567e-07 9.837562445468e-07 9.945854154123e-07 8.971225709456e-07 9.079518109372e-07 9.187810454639e-07 9.296102716061e-07 9.404394873730e-07 9.512686918506e-07 9.620978852336e-07 9.729270687567e-07 9.837562445468e-07 9.945854154123e-07 8.971225709456e-07 9.079518109372e-07 9.187810454639e-07 9.296102716061e-07 9.404394873730e-07 9.512686918506e-07 9.620978852336e-07 9.729270687567e-07 9.837562445468e-07 9.945854154123e-07 
        </DataArray>
        <DataArray type="Float64" Name="VISCOSITY" format="ascii">
          1.278000000000e-09 1.278000000000e-09 1.278000000000e-09 1.278000000000e-09 1.278000000000e-09 1.278000000000e-09 1.278000000000e-09 1.278000000000e-09 1.278000000000e-09 1.278000000000e-09 1.278000000000e-09 1.278000000000e-09 1.278000000000e-09 1.278000000000e-09 1.278000000000e-09 1.278000000000e-09 1.278000000000e-09 1.278000000000e-09 1.278000000000e-09 1.278000000000e-09 1.278000000000e-09 1.278000000000e-09 1.278000000000e-09 1.278000000000e-09 1.278000000000e-09 1.278000000000e-09 1.278000000000e-09 1.278000000000e-09 1.278000000000e-09 1.278000000000e-09 1.278000000000e-09 1.278000000000e-09 1.278000000000e-09 1.278000000000e-09 1.278000000000e-09 1.278000000000e-09 1.278000000000e-09 1.278000000000e-09 1.278000000000e-09 1.278000000000e-09 1.278000000000e-09 1.278000000000e-09 1.278000000000e-09 1.278000000000e-09 1.278000000000e-09 1.278000000000e-09 1.278000000000e-09 1.278000000000e-09 1.278000000000e-09 1.278000000000e-09 1.278000000000e-09 1.278000000000e-09 1.278000000000e-09 1.278000000000e-09 1.278000000000e-09 1.278000000000e-09 1.278000000000e-09 1.278000000000e-09 1.278000000000e-09 1.278000000000e-09 1.278000000000e-09 1.278000000000e-09 1.278000000000e-09 1.278000000000e-09 1.278000000000e-09 1.278000000000e-09 1.278000000000e-09 1.278000000000e-09 1.278000000000e-09 1.278000000000e-09 1.278000000000e-09 1.278000000000e-09 1.278000000000e-09 1.278000000000e-09 1.278000000000e-09 1.278000000000e-09 1.278000000000e-09 1.278000000000e-09 1.278000000000e-09 1.278000000000e-09 1.278000000000e-09 1.278000000000e-09 1.278000000000e-09 1.278000000000e-09 1.278000000000e-09 1.278000000000e-09 1.278000000000e-09 1.278000000000e-09 1.278000000000e-09 1.278000000000e-09 1.278000000000e-09 1.278000000000e-09 1.278000000000e-09 1.278000000000e-09 1.278000000000e-09 1.278000000000e-09 1.278000000000e-09 1.278000000000e-09 1.278000000000e-09 1.278000000000e-09 
        </DataArray>
      </CellData>
    </Piece>
  </UnstructuredGrid>
</VTKFile>
