<?xml version="1.0"?>
<!-- Time step: 4 | Time: 4.000000000000e+01 -->
<VTKFile type="UnstructuredGrid" version="0.1" byte_order="LittleEndian">
  <UnstructuredGrid>
    <Piece NumberOfPoints="121" NumberOfCells="100">
      <Points>
        <DataArray type="Float64" NumberOfComponents="3" format="ascii">
          0.000000000000e+00 0.000000000000e+00 0.000000000000e+00
          1.000000000000e-01 0.000000000000e+00 0.000000000000e+00
          2.000000000000e-01 0.000000000000e+00 0.000000000000e+00
          3.000000000000e-01 0.000000000000e+00 0.000000000000e+00
          4.000000000000e-01 0.000000000000e+00 0.000000000000e+00
          5.000000000000e-01 0.000000000000e+00 0.000000000000e+00
          6.000000000000e-01 0.000000000000e+00 0.000000000000e+00
          7.000000000000e-01 0.000000000000e+00 0.000000000000e+00
          8.000000000000e-01 0.000000000000e+00 0.000000000000e+00
          9.000000000000e-01 0.000000000000e+00 0.000000000000e+00
          1.000000000000e+00 0.000000000000e+00 0.000000000000e+00
          0.000000000000e+00 1.000000000000e-01 0.000000000000e+00
          1.000000000000e-01 1.000000000000e-01 0.000000000000e+00
          2.000000000000e-01 1.000000000000e-01 0.000000000000e+00
          3.000000000000e-01 1.000000000000e-01 0.000000000000e+00
          4.000000000000e-01 1.000000000000e-01 0.000000000000e+00
          5.000000000000e-01 1.000000000000e-01 0.000000000000e+00
          6.000000000000e-01 1.000000000000e-01 0.000000000000e+00
          7.000000000000e-01 1.000000000000e-01 0.000000000000e+00
          8.000000000000e-01 1.000000000000e-01 0.000000000000e+00
          9.000000000000e-01 1.000000000000e-01 0.000000000000e+00
          1.000000000000e+00 1.000000000000e-01 0.000000000000e+00
          0.000000000000e+00 2.000000000000e-01 0.000000000000e+00
          1.000000000000e-01 2.000000000000e-01 0.000000000000e+00
          2.000000000000e-01 2.000000000000e-01 0.000000000000e+00
          3.000000000000e-01 2.000000000000e-01 0.000000000000e+00
          4.000000000000e-01 2.000000000000e-01 0.000000000000e+00
          5.000000000000e-01 2.000000000000e-01 0.000000000000e+00
          6.000000000000e-01 2.000000000000e-01 0.000000000000e+00
          7.000000000000e-01 2.000000000000e-01 0.000000000000e+00
          8.000000000000e-01 2.000000000000e-01 0.000000000000e+00
          9.000000000000e-01 2.000000000000e-01 0.000000000000e+00
          1.000000000000e+00 2.000000000000e-01 0.000000000000e+00
          0.000000000000e+00 3.000000000000e-01 0.000000000000e+00
          1.000000000000e-01 3.000000000000e-01 0.000000000000e+00
          2.000000000000e-01 3.000000000000e-01 0.000000000000e+00
          3.000000000000e-01 3.000000000000e-01 0.000000000000e+00
          4.000000000000e-01 3.000000000000e-01 0.000000000000e+00
          5.000000000000e-01 3.000000000000e-01 0.000000000000e+00
          6.000000000000e-01 3.000000000000e-01 0.000000000000e+00
          7.000000000000e-01 3.000000000000e-01 0.000000000000e+00
          8.000000000000e-01 3.000000000000e-01 0.000000000000e+00
          9.000000000000e-01 3.000000000000e-01 0.000000000000e+00
          1.000000000000e+00 3.000000000000e-01 0.000000000000e+00
          0.000000000000e+00 4.000000000000e-01 0.000000000000e+00
          1.000000000000e-01 4.000000000000e-01 0.000000000000e+00
          2.000000000000e-01 4.000000000000e-01 0.000000000000e+00
          3.000000000000e-01 4.000000000000e-01 0.000000000000e+00
          4.000000000000e-01 4.000000000000e-01 0.000000000000e+00
          5.000000000000e-01 4.000000000000e-01 0.000000000000e+00
          6.000000000000e-01 4.000000000000e-01 0.000000000000e+00
          7.000000000000e-01 4.000000000000e-01 0.000000000000e+00
          8.000000000000e-01 4.000000000000e-01 0.000000000000e+00
          9.000000000000e-01 4.000000000000e-01 0.000000000000e+00
          1.000000000000e+00 4.000000000000e-01 0.000000000000e+00
          0.000000000000e+00 5.000000000000e-01 0.000000000000e+00
          1.000000000000e-01 5.000000000000e-01 0.000000000000e+00
          2.000000000000e-01 5.000000000000e-01 0.000000000000e+00
          3.000000000000e-01 5.000000000000e-01 0.000000000000e+00
          4.000000000000e-01 5.000000000000e-01 0.000000000000e+00
          5.000000000000e-01 5.000000000000e-01 0.000000000000e+00
          6.000000000000e-01 5.000000000000e-01 0.000000000000e+00
          7.000000000000e-01 5.000000000000e-01 0.000000000000e+00
          8.000000000000e-01 5.000000000000e-01 0.000000000000e+00
          9.000000000000e-01 5.000000000000e-01 0.000000000000e+00
          1.000000000000e+00 5.000000000000e-01 0.000000000000e+00
          0.000000000000e+00 6.000000000000e-01 0.000000000000e+00
          1.000000000000e-01 6.000000000000e-01 0.000000000000e+00
          2.000000000000e-01 6.000000000000e-01 0.000000000000e+00
          3.000000000000e-01 6.000000000000e-01 0.000000000000e+00
          4.000000000000e-01 6.000000000000e-01 0.000000000000e+00
          5.000000000000e-01 6.000000000000e-01 0.000000000000e+00
          6.000000000000e-01 6.000000000000e-01 0.000000000000e+00
          7.000000000000e-01 6.000000000000e-01 0.000000000000e+00
          8.000000000000e-01 6.000000000000e-01 0.000000000000e+00
          9.000000000000e-01 6.000000000000e-01 0.000000000000e+00
          1.000000000000e+00 6.000000000000e-01 0.000000000000e+00
          0.000000000000e+00 7.000000000000e-01 0.000000000000e+00
          1.000000000000e-01 7.000000000000e-01 0.000000000000e+00
          2.000000000000e-01 7.000000000000e-01 0.000000000000e+00
          3.000000000000e-01 7.000000000000e-01 0.000000000000e+00
          4.000000000000e-01 7.000000000000e-01 0.000000000000e+00
          5.000000000000e-01 7.000000000000e-01 0.000000000000e+00
          6.000000000000e-01 7.000000000000e-01 0.000000000000e+00
          7.000000000000e-01 7.000000000000e-01 0.000000000000e+00
          8.000000000000e-01 7.000000000000e-01 0.000000000000e+00
          9.000000000000e-01 7.000000000000e-01 0.000000000000e+00
          1.000000000000e+00 7.000000000000e-01 0.000000000000e+00
          0.000000000000e+00 8.000000000000e-01 0.000000000000e+00
          1.000000000000e-01 8.000000000000e-01 0.000000000000e+00
          2.000000000000e-01 8.000000000000e-01 0.000000000000e+00
          3.000000000000e-01 8.000000000000e-01 0.000000000000e+00
          4.000000000000e-01 8.000000000000e-01 0.000000000000e+00
          5.000000000000e-01 8.000000000000e-01 0.000000000000e+00
          6.000000000000e-01 8.000000000000e-01 0.000000000000e+00
          7.000000000000e-01 8.000000000000e-01 0.000000000000e+00
          8.000000000000e-01 8.000000000000e-01 0.000000000000e+00
          9.000000000000e-01 8.000000000000e-01 0.000000000000e+00
          1.000000000000e+00 8.000000000000e-01 0.000000000000e+00
          0.000000000000e+00 9.000000000000e-01 0.000000000000e+00
          1.000000000000e-01 9.000000000000e-01 0.000000000000e+00
          2.000000000000e-01 9.000000000000e-01 0.000000000000e+00
          3.000000000000e-01 9.000000000000e-01 0.000000000000e+00
          4.000000000000e-01 9.000000000000e-01 0.000000000000e+00
          5.000000000000e-01 9.000000000000e-01 0.000000000000e+00
          6.000000000000e-01 9.000000000000e-01 0.000000000000e+00
          7.000000000000e-01 9.000000000000e-01 0.000000000000e+00
          8.000000000000e-01 9.000000000000e-01 0.000000000000e+00
          9.000000000000e-01 9.000000000000e-01 0.000000000000e+00
          1.000000000000e+00 9.000000000000e-01 0.000000000000e+00
          0.000000000000e+00 1.000000000000e+00 0.000000000000e+00
          1.000000000000e-01 1.000000000000e+00 0.000000000000e+00
          2.000000000000e-01 1.000000000000e+00 0.000000000000e+00
          3.000000000000e-01 1.000000000000e+00 0.000000000000e+00
          4.000000000000e-01 1.000000000000e+00 0.000000000000e+00
          5.000000000000e-01 1.000000000000e+00 0.000000000000e+00
          6.000000000000e-01 1.000000000000e+00 0.000000000000e+00
          7.000000000000e-01 1.000000000000e+00 0.000000000000e+00
          8.000000000000e-01 1.000000000000e+00 0.000000000000e+00
          9.000000000000e-01 1.000000000000e+00 0.000000000000e+00
          1.000000000000e+00 1.000000000000e+00 0.000000000000e+00
        </DataArray>
      </Points>
      <Cells>
        <DataArray type="Int64" Name="connectivity" format="ascii">
          0 1 12 11 
          1 2 13 12 
          2 3 14 13 
          3 4 15 14 
          4 5 16 15 
          5 6 17 16 
          6 7 18 17 
          7 8 19 18 
          8 9 20 19 
          9 10 21 20 
          11 12 23 22 
          12 13 24 23 
          13 14 25 24 
          14 15 26 25 
          15 16 27 26 
          16 17 28 27 
          17 18 29 28 
          18 19 30 29 
          19 20 31 30 
          20 21 32 31 
          22 23 34 33 
          23 24 35 34 
          24 25 36 35 
          25 26 37 36 
          26 27 38 37 
          27 28 39 38 
          28 29 40 39 
          29 30 41 40 
          30 31 42 41 
          31 32 43 42 
          33 34 45 44 
          34 35 46 45 
          35 36 47 46 
          36 37 48 47 
          37 38 49 48 
          38 39 50 49 
          39 40 51 50 
          40 41 52 51 
          41 42 53 52 
          42 43 54 53 
          44 45 56 55 
          45 46 57 56 
          46 47 58 57 
          47 48 59 58 
          48 49 60 59 
          49 50 61 60 
          50 51 62 61 
          51 52 63 62 
          52 53 64 63 
          53 54 65 64 
          55 56 67 66 
          56 57 68 67 
          57 58 69 68 
          58 59 70 69 
          59 60 71 70 
          60 61 72 71 
          61 62 73 72 
          62 63 74 73 
          63 64 75 74 
          64 65 76 75 
          66 67 78 77 
          67 68 79 78 
          68 69 80 79 
          69 70 81 80 
          70 71 82 81 
          71 72 83 82 
          72 73 84 83 
          73 74 85 84 
          74 75 86 85 
          75 76 87 86 
          77 78 89 88 
          78 79 90 89 
          79 80 91 90 
          80 81 92 91 
          81 82 93 92 
          82 83 94 93 
          83 84 95 94 
          84 85 96 95 
          85 86 97 96 
          86 87 98 97 
          88 89 100 99 
          89 90 101 100 
          90 91 102 101 
          91 92 103 102 
          92 93 104 103 
          93 94 105 104 
          94 95 106 105 
          95 96 107 106 
          96 97 108 107 
          97 98 109 108 
          99 100 111 110 
          100 101 112 111 
          101 102 113 112 
          102 103 114 113 
          103 104 115 114 
          104 105 116 115 
          105 106 117 116 
          106 107 118 117 
          107 108 119 118 
          108 109 120 119 
        </DataArray>
        <DataArray type="Int64" Name="offsets" format="ascii">
          4 8 12 16 20 24 28 32 36 40 44 48 52 56 60 64 68 72 76 80 84 88 92 96 100 104 108 112 116 120 124 128 132 136 140 144 148 152 156 160 164 168 172 176 180 184 188 192 196 200 204 208 212 216 220 224 228 232 236 240 244 248 252 256 260 264 268 272 276 280 284 288 292 296 300 304 308 312 316 320 324 328 332 336 340 344 348 352 356 360 364 368 372 376 380 384 388 392 396 400 
        </DataArray>
        <DataArray type="UInt8" Name="types" format="ascii">
          9 9 9 9 9 9 9 9 9 9 9 9 9 9 9 9 9 9 9 9 9 9 9 9 9 9 9 9 9 9 9 9 9 9 9 9 9 9 9 9 9 9 9 9 9 9 9 9 9 9 9 9 9 9 9 9 9 9 9 9 9 9 9 9 9 9 9 9 9 9 9 9 9 9 9 9 9 9 9 9 9 9 9 9 9 9 9 9 9 9 9 9 9 9 9 9 9 9 9 9 
        </DataArray>
      </Cells>
      <PointData Scalars="PRESSURE1">
        <DataArray type="Float64" Name="PRESSURE1" format="ascii">
          1.254560208829e-03 1.137639363816e-03 1.014091644595e-03 8.888225882267e-04 7.627150610516e-04 6.361109300377e-04 5.091858450456e-04 3.820471260577e-04 2.547682713106e-04 1.274042787839e-04 0.000000000000e+00 1.264926792074e-03 1.139594029624e-03 1.014908631630e-03 8.892668029958e-04 7.629908861674e-04 6.362931300815e-04 5.093084315690e-04 3.821279735824e-04 2.548175214319e-04 1.274276122192e-04 0.000000000000e+00 1.269776696069e-03 1.142917661972e-03 1.016648118288e-03 8.903104359813e-04 7.636691207227e-04 6.367513846492e-04 5.096203100496e-04 3.823348687180e-04 2.549439259032e-04 1.274875802347e-04 0.000000000000e+00 1.273087266497e-03 1.145705003951e-03 1.018660903075e-03 8.916909210159e-04 7.646269645132e-04 6.374204113605e-04 5.100834558577e-04 3.826447969047e-04 2.551341052488e-04 1.275779848649e-04 0.000000000000e+00 1.275776329907e-03 1.148138284484e-03 1.020644889364e-03 8.932030693363e-04 7.657398830210e-04 6.382225494081e-04 5.106478987379e-04 3.830256856152e-04 2.553688073866e-04 1.276897688594e-04 0.000000000000e+00 1.278233387246e-03 1.150417523072e-03 1.022586949260e-03 8.947503206324e-04 7.669149822628e-04 6.390847334301e-04 5.112603294741e-04 3.834409571192e-04 2.556253138291e-04 1.278120731849e-04 0.000000000000e+00 1.280712848830e-03 1.152712453940e-03 1.024534416231e-03 8.962950492086e-04 7.680841106540e-04 6.399407032264e-04 5.118676456744e-04 3.838525153365e-04 2.558794508424e-04 1.279332311418e-04 0.000000000000e+00 1.283480181841e-03 1.155196492915e-03 1.026530536036e-03 8.977940716268e-04 7.691760018440e-04 6.407231995729e-04 5.124166106059e-04 3.842223864624e-04 2.561071876441e-04 1.280416590971e-04 0.000000000000e+00 1.286973405012e-03 1.158078755907e-03 1.028539191665e-03 8.991307478763e-04 7.700904886484e-04 6.413573673858e-04 5.128540145793e-04 3.845145410401e-04 2.562862931039e-04 1.281267629834e-04 0.000000000000e+00 1.292292283578e-03 1.161519461342e-03 1.030153522945e-03 9.000774380473e-04 7.706986058782e-04 6.417659879636e-04 5.131313437457e-04 3.846982588219e-04 2.563984586493e-04 1.281799587332e-04 0.000000000000e+00 1.304614355079e-03 1.162643294436e-03 1.030712692978e-03 9.003772516901e-04 7.708849451049e-04 6.418890699560e-04 5.132141551471e-04 3.847528740885e-04 2.564317287901e-04 1.281957212666e-04 0.000000000000e+00 
        </DataArray>
        <DataArray type="Float64" Name="TEMPERATURE1" format="ascii">
          5.231500000000e+02 4.708349979021e+02 4.185199960119e+02 3.662049945157e+02 3.138899935598e+02 2.615749932364e+02 2.092599935748e+02 1.569449945399e+02 1.046299960361e+02 5.231499791709e+01 0.000000000000e+00 5.231500000000e+02 4.708349979021e+02 4.185199960119e+02 3.662049945157e+02 3.138899935598e+02 2.615749932364e+02 2.092599935748e+02 1.569449945399e+02 1.046299960361e+02 5.231499791709e+01 0.000000000000e+00 5.231500000000e+02 4.708349979021e+02 4.185199960119e+02 3.662049945157e+02 3.138899935598e+02 2.615749932364e+02 2.092599935748e+02 1.569449945399e+02 1.046299960361e+02 5.231499791709e+01 0.000000000000e+00 5.231500000000e+02 4.708349979021e+02 4.185199960119e+02 3.662049945157e+02 3.138899935598e+02 2.615749932364e+02 2.092599935748e+02 1.569449945399e+02 1.046299960361e+02 5.231499791709e+01 0.000000000000e+00 5.231500000000e+02 4.708349979021e+02 4.185199960119e+02 3.662049945157e+02 3.138899935598e+02 2.615749932364e+02 2.092599935748e+02 1.569449945399e+02 1.046299960361e+02 5.231499791709e+01 0.000000000000e+00 5.231500000000e+02 4.708349979021e+02 4.185199960119e+02 3.662049945157e+02 3.138899935598e+02 2.615749932364e+02 2.092599935748e+02 1.569449945399e+02 1.046299960361e+02 5.231499791709e+01 0.000000000000e+00 5.231500000000e+02 4.708349979021e+02 4.185199960119e+02 3.662049945157e+02 3.138899935598e+02 2.615749932364e+02 2.092599935748e+02 1.569449945399e+02 1.046299960361e+02 5.231499791709e+01 0.000000000000e+00 5.231500000000e+02 4.708349979021e+02 4.185199960119e+02 3.662049945157e+02 3.138899935598e+02 2.615749932364e+02 2.092599935748e+02 1.569449945399e+02 1.046299960361e+02 5.231499791709e+01 0.000000000000e+00 5.231500000000e+02 4.708349979021e+02 4.185199960119e+02 3.662049945157e+02 3.138899935598e+02 2.615749932364e+02 2.092599935748e+02 1.569449945399e+02 1.046299960361e+02 5.231499791709e+01 0.000000000000e+00 5.231500000000e+02 4.708349979021e+02 4.185199960119e+02 3.662049945157e+02 3.138899935598e+02 2.615749932364e+02 2.092599935748e+02 1.569449945399e+02 1.046299960361e+02 5.231499791709e+01 0.000000000000e+00 5.231500000000e+02 4.708349979021e+02 4.185199960119e+02 3.662049945157e+02 3.138899935598e+02 2.615749932364e+02 2.092599935748e+02 1.569449945399e+02 1.046299960361e+02 5.231499791709e+01 0.000000000000e+00 
        </DataArray>
        <DataArray type="Float64" Name="STRESS_XX" format="ascii">
          -2.913325240375e-02 -2.858101903604e-02 -2.675585181035e-02 -2.383204513339e-02 -2.007392618720e-02 -1.579670834567e-02 -1.134066783463e-02 -7.064385741282e-03 -3.361052992640e-03 -6.936235999985e-04 2.665822181304e-04 -2.869134077563e-02 -2.814465994368e-02 -2.632203422262e-02 -2.341162335301e-02 -1.968601538018e-02 -1.546483578379e-02 -1.108613038378e-02 -6.899080475312e-03 -3.281282669435e-03 -6.766903560713e-04 2.606575828255e-04 -2.731784107194e-02 -2.677162527627e-02 -2.495700701055e-02 -2.208835449652e-02 -1.846535402522e-02 -1.442059725475e-02 -1.028447921879e-02 -6.377078645683e-03 -3.028305705192e-03 -6.230178085245e-04 2.417472214483e-04 -2.481250411739e-02 -2.426318262207e-02 -2.246037907091e-02 -1.966916112980e-02 -1.623721794492e-02 -1.251678403330e-02 -8.821151726638e-03 -5.418811023566e-03 -2.558219723702e-03 -5.206926457888e-04 2.065528234690e-04 -2.082199342968e-02 -2.026511119053e-02 -1.848079899849e-02 -1.582382694371e-02 -1.271434837280e-02 -9.521859490347e-03 -6.522095351711e-03 -3.904734811393e-03 -1.804019256638e-03 -3.511086902784e-04 1.499420839259e-04 -1.479618956758e-02 -1.422588387990e-02 -1.248133295203e-02 -1.007239040252e-02 -7.511237824151e-03 -5.153470782138e-03 -3.192056422326e-03 -1.704849777250e-03 -6.896785814764e-04 -9.088248897857e-05 6.605408258622e-05 -5.896320132181e-03 -5.306966894580e-03 -3.673075142758e-03 -1.772611495786e-03 -1.874477826325e-04 8.455455838733e-04 1.304243540393e-03 1.257828909893e-03 8.376390871193e-04 2.826987472498e-04 -4.924647604619e-05 7.205568628588e-03 7.812256731363e-03 9.104031522422e-03 9.862689289207e-03 9.637046600142e-03 8.556423174044e-03 6.892379245388e-03 4.883013089912e-03 2.735759997913e-03 7.777191569296e-04 -1.922883020391e-04 2.681387168386e-02 2.739504672869e-02 2.753836429489e-02 2.558477355271e-02 2.201074352469e-02 1.763667961516e-02 1.306041792318e-02 8.671030473482e-03 4.695909763180e-03 1.341618789798e-03 -3.335241736605e-04 5.753431543772e-02 5.800028087370e-02 5.351761735023e-02 4.535187752966e-02 3.615952864659e-02 2.703427063761e-02 1.862010656028e-02 1.138811690597e-02 5.695375609608e-03 1.634128078909e-03 -3.485939752111e-04 1.219422671326e-01 1.053494802545e-01 8.510436768191e-02 6.676934463946e-02 4.999352058966e-02 3.488548506106e-02 2.167835235689e-02 1.080007355479e-02 2.990545616605e-03 -5.519731860502e-04 -2.297803085451e-04 
        </DataArray>
        <DataArray type="Float64" Name="STRESS_XY" format="ascii">
          8.545055510550e-08 -1.134142598881e-06 -2.709428284997e-06 -4.297106730342e-06 -5.930935597118e-06 -7.451236196648e-06 -8.678967251909e-06 -9.456964761194e-06 -9.726206184434e-06 -1.092770497994e-05 2.454523641636e-05 -3.555579499681e-06 -1.324252647703e-03 -2.523972734024e-03 -3.495006576386e-03 -4.170053378826e-03 -4.514645815813e-03 -4.511772446303e-03 -4.139604362581e-03 -3.348399152766e-03 -2.042732758146e-03 -7.043931995207e-05 -7.827251923312e-06 -2.649394622782e-03 -5.034967499629e-03 -6.945441724956e-03 -8.250341030246e-03 -8.892132999450e-03 -8.850993547172e-03 -8.096874672497e-03 -6.540571814242e-03 -3.993959530107e-03 -1.404230550386e-04 -1.288065044374e-05 -3.975042334877e-03 -7.518068278703e-03 -1.029908083514e-02 -1.213659511205e-02 -1.297562249292e-02 -1.282240216560e-02 -1.166522853811e-02 -9.396654290146e-03 -5.744840213606e-03 -2.085623123943e-04 -1.969142885467e-05 -5.303900880818e-03 -9.952674262765e-03 -1.348267359769e-02 -1.568914889233e-02 -1.656514039731e-02 -1.618558725594e-02 -1.459279585552e-02 -1.169281981136e-02 -7.152364931200e-03 -2.707142722652e-04 -2.993552444356e-05 -6.639231988308e-03 -1.229885456222e-02 -1.637164899810e-02 -1.869526755281e-02 -1.938510205152e-02 -1.863388918366e-02 -1.657024922320e-02 -1.315087741407e-02 -8.027930697595e-03 -3.182500100475e-04 -4.732603868946e-05 -7.978810860023e-03 -1.445838372639e-02 -1.871976243682e-02 -2.079712988731e-02 -2.103612271974e-02 -1.977770508592e-02 -1.723774600485e-02 -1.345017647891e-02 -8.137472499656e-03 -3.351163307723e-04 -8.160774993976e-05 -9.295280723834e-03 -1.616591628156e-02 -1.999985652600e-02 -2.136275465150e-02 -2.092825471481e-02 -1.913782974378e-02 -1.622517681488e-02 -1.228455527228e-02 -7.228983325437e-03 -2.922791276050e-04 -1.653999928004e-04 -1.046317864277e-02 -1.665890625585e-02 -1.907038952623e-02 -1.930524029242e-02 -1.821532178211e-02 -1.615192449837e-02 -1.322788436495e-02 -9.498889499044e-03 -5.131645162874e-03 -1.342089500569e-04 -5.215106680953e-04 -1.090875835441e-02 -1.354933695351e-02 -1.370449243184e-02 -1.299652795121e-02 -1.180127536871e-02 -1.017619891272e-02 -8.045472646550e-03 -5.301743694908e-03 -2.090600181106e-03 2.464025011285e-04 -2.229258624063e-03 -2.309820131215e-03 -1.185595250836e-03 -8.071460634078e-04 -6.148662722258e-04 -4.937502123970e-04 -3.982712292490e-04 -2.912371809672e-04 -1.136739050757e-04 2.548309945996e-04 3.149266510552e-04 
        </DataArray>
        <DataArray type="Float64" Name="STRESS_YY" format="ascii">
          -6.707796736207e-02 -4.691054482446e-02 -3.013448509323e-02 -1.638923169774e-02 -5.124021227177e-03 4.351675775592e-03 1.282720430779e-02 2.117383127237e-02 3.035872084062e-02 4.148816944770e-02 5.587454410597e-02 -6.639647590262e-02 -4.626669721201e-02 -2.958181858290e-02 -1.596953236176e-02 -4.862388830149e-03 4.442922080923e-03 1.273905179392e-02 2.088905314391e-02 2.984141880411e-02 4.067783841010e-02 5.468906293904e-02 -6.437616710247e-02 -4.434564619581e-02 -2.793907105451e-02 -1.473350711450e-02 -4.104733383102e-03 4.691735457322e-03 1.245911020042e-02 2.003485643672e-02 2.830875290683e-02 3.828309904760e-02 5.117589940528e-02 -6.100993702544e-02 -4.115669798490e-02 -2.524161733170e-02 -1.274267488586e-02 -2.925337373135e-03 5.031586985859e-03 1.194999967793e-02 1.862156467370e-02 2.583029624483e-02 3.442914517868e-02 4.548411954202e-02 -5.628907179587e-02 -3.671355052721e-02 -2.155544991683e-02 -1.011140216164e-02 -1.458148044561e-03 5.345780145383e-03 1.114667627911e-02 1.666554227521e-02 2.252617186134e-02 2.934174457081e-02 3.790047907037e-02 -5.019561657319e-02 -3.104058837902e-02 -1.699640057089e-02 -7.029005738821e-03 9.035946494347e-05 5.465826609826e-03 9.959575459714e-03 1.419118036324e-02 1.857105622421e-02 2.336824291157e-02 2.890609329966e-02 -4.269702555087e-02 -2.418781609385e-02 -1.177401840633e-02 -3.798622948131e-03 1.432318004846e-03 5.187978863803e-03 8.296950726982e-03 1.124229401963e-02 1.419506958833e-02 1.699497277319e-02 1.925006151092e-02 -3.373851726846e-02 -1.627778518885e-02 -6.294544663934e-03 -8.955174377682e-04 2.218005485993e-03 4.335928506185e-03 6.129552430433e-03 7.917002683548e-03 9.676754019825e-03 1.083962224185e-02 1.002921464833e-02 -2.321603745381e-02 -7.656932742121e-03 -1.408179988167e-03 1.001433342680e-03 2.150602932549e-03 2.905214391122e-03 3.621605094963e-03 4.455125612679e-03 5.335289651364e-03 5.569955967856e-03 2.750976265151e-03 -1.046487698930e-02 2.208207016743e-04 1.182376867876e-03 1.311794407935e-03 1.299207760829e-03 1.280107474406e-03 1.308799848185e-03 1.421569169602e-03 1.617327419159e-03 1.640259722425e-03 -6.673618594107e-04 2.592960357855e-03 2.110938055862e-03 1.203662059136e-03 8.718734205643e-04 6.536708326465e-04 4.634586179218e-04 2.732496084136e-04 7.206568651012e-05 -1.284169554996e-04 -2.272355812138e-04 -2.306112713248e-04 
        </DataArray>
        <DataArray type="Float64" Name="STRESS_ZZ" format="ascii">
          -1.826694659297e-01 -1.610729585414e-01 -1.401119798986e-01 -1.197306514370e-01 -9.984304233091e-02 -8.033655778252e-02 -6.107647716903e-02 -4.190899473540e-02 -2.266191848022e-02 -3.142245633313e-03 1.684233789723e-02 -1.823324450035e-01 -1.607488965299e-01 -1.398160346691e-01 -1.194786151020e-01 -9.964817936969e-02 -8.020962212235e-02 -6.102656168794e-02 -4.194483659414e-02 -2.279317799421e-02 -3.380264971415e-03 1.648491615656e-02 -1.813143024523e-01 -1.597606708248e-01 -1.389137022470e-01 -1.187108268709e-01 -9.905468432909e-02 -7.982170655072e-02 -6.087004881649e-02 -4.204449505741e-02 -2.317708467412e-02 -4.082585015901e-03 1.542529398802e-02 -1.795528323428e-01 -1.580514535653e-01 -1.373554777483e-01 -1.173878191923e-01 -9.803242470201e-02 -7.914860712573e-02 -6.058378372559e-02 -4.218100229968e-02 -2.377959587827e-02 -5.208073627756e-03 1.370720170965e-02 -1.769394195677e-01 -1.555190878985e-01 -1.350557535021e-01 -1.154448371192e-01 -9.653540703180e-02 -7.815587181498e-02 -6.013506383276e-02 -4.231358615558e-02 -2.454457305320e-02 -6.683418623463e-03 1.141512634629e-02 -1.733036418422e-01 -1.520054310609e-01 -1.318881988844e-01 -1.127946872300e-01 -9.450992161436e-02 -7.680934126319e-02 -5.949218239976e-02 -4.239592921892e-02 -2.539680554179e-02 -8.397401260847e-03 8.691644214674e-03 -1.683841037049e-01 -1.472739242797e-01 -1.276790068922e-01 -1.093356387208e-01 -9.191019703993e-02 -7.509299067719e-02 -5.864207983077e-02 -4.239179151586e-02 -2.625140623198e-02 -1.019730793149e-02 5.760244510463e-03 -1.617659845920e-01 -1.409651479205e-01 -1.222020327699e-01 -1.049741168322e-01 -8.872714248075e-02 -7.303534250742e-02 -5.761585860823e-02 -4.230182366268e-02 -2.703746462929e-02 -1.189540696799e-02 2.951077903888e-03 -1.527267497310e-01 -1.325040551872e-01 -1.152058235355e-01 -9.968840631900e-02 -8.503525416942e-02 -7.074047980961e-02 -5.651783120554e-02 -4.220398156887e-02 -2.775185901025e-02 -1.330713696033e-02 7.252356274473e-04 -1.396852684655e-01 -1.209591589106e-01 -1.066348805621e-01 -9.366516680634e-02 -8.104603718437e-02 -6.840873457789e-02 -5.554376618844e-02 -4.229892257205e-02 -2.856740792598e-02 -1.439829304722e-02 -3.047867503865e-04 -1.164455317529e-01 -1.061873638901e-01 -9.715246990518e-02 -8.737190296961e-02 -7.708950067990e-02 -6.629836490780e-02 -5.493695752139e-02 -4.288018662233e-02 -2.990258023628e-02 -1.561437201780e-02 -1.381174739610e-04 
        </DataArray>
        <DataArray type="Float64" Name="STRAIN_XX" format="ascii">
          9.504622742085e-03 8.201881969377e-03 7.017284119747e-03 5.936580390221e-03 4.938088142229e-03 3.995324012757e-03 3.078883434987e-03 2.157047223445e-03 1.194815482564e-03 1.515813639671e-04 -1.026118208706e-03 9.511115976009e-03 8.208833693434e-03 7.025819075262e-03 5.947004251131e-03 4.950038723160e-03 4.008010582863e-03 3.091550509305e-03 2.169499188308e-03 1.207879234391e-03 1.673641428546e-04 -1.004358864088e-03 9.533114275928e-03 8.232655200626e-03 7.054462086067e-03 5.981391146987e-03 4.988863304525e-03 4.048640099274e-03 3.131487641763e-03 2.207982920726e-03 1.247305364743e-03 2.141636842661e-04 -9.399338474544e-04 9.579163175862e-03 8.282131058391e-03 7.112553727647e-03 6.049250261013e-03 5.063512799248e-03 4.124827143817e-03 3.204353409459e-03 2.275754698045e-03 1.313704238140e-03 2.901712036456e-04 -8.357544548586e-04 9.664412094256e-03 8.372865224782e-03 7.216544802604e-03 6.167014915627e-03 5.188922678891e-03 4.248772191525e-03 3.318898048827e-03 2.377690797497e-03 1.407748568359e-03 3.920001387209e-04 -6.973685495748e-04 9.812366093193e-03 8.529210063585e-03 7.391853605335e-03 6.358999327417e-03 5.385632806060e-03 4.435839601208e-03 3.485245893841e-03 2.518971584485e-03 1.529488811829e-03 5.142130668300e-04 -5.339651034150e-04 1.005876755450e-02 8.788430695272e-03 7.676557679729e-03 6.658663590119e-03 5.678074954023e-03 4.700957006637e-03 3.710962875358e-03 2.702119359690e-03 1.676940900706e-03 6.487623182078e-04 -3.596351563077e-04 1.046014377080e-02 9.210029811780e-03 8.128470646670e-03 7.108945140848e-03 6.089211705008e-03 5.050918827900e-03 3.993367105224e-03 2.920966084684e-03 1.843104381684e-03 7.845268553521e-04 -1.945893365574e-04 1.111441942092e-02 9.898515832891e-03 8.836544960927e-03 7.755006373011e-03 6.626657000112e-03 5.470967012009e-03 4.307224946064e-03 3.149405507384e-03 2.008671400260e-03 9.068277369125e-04 -6.554227340191e-05 1.220883138448e-02 1.107844151046e-02 9.914202251713e-03 8.605817030324e-03 7.255582646678e-03 5.908376513341e-03 4.591096884445e-03 3.323483396258e-03 2.121029456965e-03 9.924832125701e-04 -2.711875822475e-06 1.475733993101e-02 1.309513797086e-02 1.128256613634e-02 9.542077232942e-03 7.867044173830e-03 6.263762140929e-03 4.742852516274e-03 3.323063725250e-03 2.036241124226e-03 9.324342133942e-04 -5.674365950445e-06 
        </DataArray>
        <DataArray type="Float64" Name="STRAIN_XY" format="ascii">
          1.057959253687e-08 -1.404176550995e-07 -3.354530257615e-07 -5.320227380423e-07 -7.343063120242e-07 -9.225340052993e-07 -1.074538802617e-06 -1.170862303767e-06 -1.204196956168e-06 -1.352953949897e-06 3.038934032501e-06 -4.402146047225e-07 -1.639550897156e-04 -3.124918623077e-04 -4.327150999336e-04 -5.162923230928e-04 -5.589561486245e-04 -5.586003981136e-04 -5.125224448909e-04 -4.145637046282e-04 -2.529097700561e-04 -8.721058660733e-06 -9.690883333624e-07 -3.280202866301e-04 -6.233769285255e-04 -8.599118326136e-04 -1.021470794221e-03 -1.100930752313e-03 -1.095837296317e-03 -1.002470197547e-03 -8.097850817633e-04 -4.944902275370e-04 -1.738571157621e-05 -1.594747197797e-06 -4.921480986039e-04 -9.308084535537e-04 -1.275124293874e-03 -1.502626061492e-03 -1.606505641981e-03 -1.587535506217e-03 -1.444266390433e-03 -1.163395293066e-03 -7.112659312084e-04 -2.582200058215e-05 -2.437986429626e-06 -6.566734423870e-04 -1.232235861104e-03 -1.669283397809e-03 -1.942466053336e-03 -2.050922144429e-03 -2.003929850735e-03 -1.806727105921e-03 -1.447682452835e-03 -8.855308962438e-04 -3.351700513759e-05 -3.706303026345e-06 -8.220001509334e-04 -1.522715326751e-03 -2.026966066431e-03 -2.314652173205e-03 -2.400060253997e-03 -2.307052946549e-03 -2.051554665729e-03 -1.628203870313e-03 -9.939342768451e-04 -3.940238219635e-05 -5.859414313934e-06 -9.878527731456e-04 -1.790085604220e-03 -2.317684873130e-03 -2.574882747952e-03 -2.604472336730e-03 -2.448668248733e-03 -2.134197124410e-03 -1.665259945008e-03 -1.007496595196e-03 -4.149059333371e-05 -1.010381665921e-05 -1.150844280094e-03 -2.001494396765e-03 -2.476172712743e-03 -2.644912480662e-03 -2.591117250405e-03 -2.369445587325e-03 -2.008831415176e-03 -1.520944938472e-03 -8.950169831494e-04 -3.618693960823e-05 -2.047809434671e-05 -1.295441165296e-03 -2.062531250724e-03 -2.361095846105e-03 -2.390172607633e-03 -2.255230315881e-03 -1.999762080751e-03 -1.637738064232e-03 -1.176052985596e-03 -6.353465439749e-04 -1.661634619752e-05 -6.456798747847e-05 -1.350608177213e-03 -1.677536956149e-03 -1.696746682038e-03 -1.609093936816e-03 -1.461110283744e-03 -1.259910341575e-03 -9.961061371919e-04 -6.564063622267e-04 -2.588362128989e-04 3.050697633019e-05 -2.760034486935e-04 -2.859777305314e-04 -1.467879834369e-04 -9.993236975526e-05 -7.612630037081e-05 -6.113097867773e-05 -4.930977124035e-05 -3.605793669117e-05 -1.407391205699e-05 3.155050409328e-05 3.899091870207e-05 
        </DataArray>
        <DataArray type="Float64" Name="STRAIN_YY" format="ascii">
          7.155664197047e-03 7.067197039618e-03 6.808130630806e-03 6.397325983856e-03 5.863558449279e-03 5.242604934549e-03 4.574989805708e-03 3.905127324290e-03 3.282230053195e-03 2.762835219301e-03 2.416279431970e-03 7.176988563386e-03 7.086993291109e-03 6.824022900577e-03 6.407705122018e-03 5.867691795305e-03 5.240395593536e-03 4.566442739353e-03 3.889716983784e-03 3.258332182753e-03 2.727406399808e-03 2.365018610344e-03 7.239027426420e-03 7.144739619892e-03 6.869858121441e-03 6.436691223017e-03 5.877854106180e-03 5.231784505260e-03 4.539424129618e-03 3.843007473446e-03 3.187218516916e-03 2.622637584883e-03 2.213132716307e-03 7.338369710125e-03 7.236342012121e-03 6.940381835312e-03 6.478032742780e-03 5.887581596550e-03 5.211154873574e-03 4.490186591647e-03 3.763968431685e-03 3.071088560002e-03 2.453732592779e-03 1.967142532480e-03 7.468831052540e-03 7.354628503939e-03 7.026209269564e-03 6.520641211660e-03 5.885735080163e-03 5.169149883261e-03 4.412679149783e-03 3.651088902858e-03 2.913903256615e-03 2.230129150122e-03 1.639569454348e-03 7.620972992845e-03 7.488299785068e-03 7.112349419406e-03 6.547399330407e-03 5.856207876338e-03 5.093224677853e-03 4.299394534158e-03 3.503011545563e-03 2.721820014086e-03 1.966444639245e-03 1.251370657642e-03 7.780628647631e-03 7.619616221032e-03 7.175070715793e-03 6.533243833546e-03 5.778346169439e-03 4.969774304919e-03 4.143844748813e-03 3.320205295055e-03 2.503829455543e-03 1.683331662671e-03 8.350839095522e-04 7.925509881931e-03 7.718741502433e-03 7.175225454182e-03 6.442960914892e-03 5.629937731275e-03 4.789650110366e-03 3.946144492870e-03 3.108784488100e-03 2.272784963993e-03 1.407406570133e-03 4.381703698942e-04 8.017329807634e-03 7.728631389460e-03 7.044616029119e-03 6.233180550485e-03 5.397219725360e-03 4.559019164807e-03 3.722917485269e-03 2.888420920763e-03 2.048252060005e-03 1.168581943173e-03 1.254029918579e-04 7.999357567573e-03 7.501617785522e-03 6.674401650425e-03 5.879526170407e-03 5.097562782322e-03 4.314071174666e-03 3.519444564172e-03 2.706506631626e-03 1.868578854699e-03 9.928627905020e-04 -2.244512579673e-05 7.369049511615e-03 6.704180596655e-03 6.088712931124e-03 5.462709967011e-03 4.812672522205e-03 4.132874789688e-03 3.417774727083e-03 2.658948952452e-03 1.843162488810e-03 9.525370175031e-04 -5.725806503474e-06 
        </DataArray>
        <DataArray type="Float64" Name="STRAIN_ZZ" format="ascii">
          0.000000000000e+00 0.000000000000e+00 0.000000000000e+00 0.000000000000e+00 0.000000000000e+00 0.000000000000e+00 0.000000000000e+00 0.000000000000e+00 0.000000000000e+00 0.000000000000e+00 0.000000000000e+00 0.000000000000e+00 0.000000000000e+00 0.000000000000e+00 0.000000000000e+00 0.000000000000e+00 0.000000000000e+00 0.000000000000e+00 0.000000000000e+00 0.000000000000e+00 0.000000000000e+00 0.000000000000e+00 0.000000000000e+00 0.000000000000e+00 0.000000000000e+00 0.000000000000e+00 0.000000000000e+00 0.000000000000e+00 0.000000000000e+00 0.000000000000e+00 0.000000000000e+00 0.000000000000e+00 0.000000000000e+00 0.000000000000e+00 0.000000000000e+00 0.000000000000e+00 0.000000000000e+00 0.000000000000e+00 0.000000000000e+00 0.000000000000e+00 0.000000000000e+00 0.000000000000e+00 0.000000000000e+00 0.000000000000e+00 0.000000000000e+00 0.000000000000e+00 0.000000000000e+00 0.000000000000e+00 0.000000000000e+00 0.000000000000e+00 0.000000000000e+00 0.000000000000e+00 0.000000000000e+00 0.000000000000e+00 0.000000000000e+00 0.000000000000e+00 0.000000000000e+00 0.000000000000e+00 0.000000000000e+00 0.000000000000e+00 0.000000000000e+00 0.000000000000e+00 0.000000000000e+00 0.000000000000e+00 0.000000000000e+00 0.000000000000e+00 0.000000000000e+00 0.000000000000e+00 0.000000000000e+00 0.000000000000e+00 0.000000000000e+00 0.000000000000e+00 0.000000000000e+00 0.000000000000e+00 0.000000000000e+00 0.000000000000e+00 0.000000000000e+00 0.000000000000e+00 0.000000000000e+00 0.000000000000e+00 0.000000000000e+00 0.000000000000e+00 0.000000000000e+00 0.000000000000e+00 0.000000000000e+00 0.000000000000e+00 0.000000000000e+00 0.000000000000e+00 0.000000000000e+00 0.000000000000e+00 0.000000000000e+00 0.000000000000e+00 0.000000000000e+00 0.000000000000e+00 0.000000000000e+00 0.000000000000e+00 0.000000000000e+00 0.000000000000e+00 0.000000000000e+00 0.000000000000e+00 0.000000000000e+00 0.000000000000e+00 0.000000000000e+00 0.000000000000e+00 0.000000000000e+00 0.000000000000e+00 0.000000000000e+00 0.000000000000e+00 0.000000000000e+00 0.000000000000e+00 0.000000000000e+00 0.000000000000e+00 0.000000000000e+00 0.000000000000e+00 0.000000000000e+00 0.000000000000e+00 0.000000000000e+00 0.000000000000e+00 0.000000000000e+00 0.000000000000e+00 0.000000000000e+00 
        </DataArray>
        <DataArray type="Float64" Name="STRAIN_PLS" format="ascii">
          0.000000000000e+00 0.000000000000e+00 0.000000000000e+00 0.000000000000e+00 0.000000000000e+00 0.000000000000e+00 0.000000000000e+00 0.000000000000e+00 0.000000000000e+00 0.000000000000e+00 0.000000000000e+00 0.000000000000e+00 0.000000000000e+00 0.000000000000e+00 0.000000000000e+00 0.000000000000e+00 0.000000000000e+00 0.000000000000e+00 0.000000000000e+00 0.000000000000e+00 0.000000000000e+00 0.000000000000e+00 0.000000000000e+00 0.000000000000e+00 0.000000000000e+00 0.000000000000e+00 0.000000000000e+00 0.000000000000e+00 0.000000000000e+00 0.000000000000e+00 0.000000000000e+00 0.000000000000e+00 0.000000000000e+00 0.000000000000e+00 0.000000000000e+00 0.000000000000e+00 0.000000000000e+00 0.000000000000e+00 0.000000000000e+00 0.000000000000e+00 0.000000000000e+00 0.000000000000e+00 0.000000000000e+00 0.000000000000e+00 0.000000000000e+00 0.000000000000e+00 0.000000000000e+00 0.000000000000e+00 0.000000000000e+00 0.000000000000e+00 0.000000000000e+00 0.000000000000e+00 0.000000000000e+00 0.000000000000e+00 0.000000000000e+00 0.000000000000e+00 0.000000000000e+00 0.000000000000e+00 0.000000000000e+00 0.000000000000e+00 0.000000000000e+00 0.000000000000e+00 0.000000000000e+00 0.000000000000e+00 0.000000000000e+00 0.000000000000e+00 0.000000000000e+00 0.000000000000e+00 0.000000000000e+00 0.000000000000e+00 0.000000000000e+00 0.000000000000e+00 0.000000000000e+00 0.000000000000e+00 0.000000000000e+00 0.000000000000e+00 0.000000000000e+00 0.000000000000e+00 0.000000000000e+00 0.000000000000e+00 0.000000000000e+00 0.000000000000e+00 0.000000000000e+00 0.000000000000e+00 0.000000000000e+00 0.000000000000e+00 0.000000000000e+00 0.000000000000e+00 0.000000000000e+00 0.000000000000e+00 0.000000000000e+00 0.000000000000e+00 0.000000000000e+00 0.000000000000e+00 0.000000000000e+00 0.000000000000e+00 0.000000000000e+00 0.000000000000e+00 0.000000000000e+00 0.000000000000e+00 0.000000000000e+00 0.000000000000e+00 0.000000000000e+00 0.000000000000e+00 0.000000000000e+00 0.000000000000e+00 0.000000000000e+00 0.000000000000e+00 0.000000000000e+00 0.000000000000e+00 0.000000000000e+00 0.000000000000e+00 0.000000000000e+00 0.000000000000e+00 0.000000000000e+00 0.000000000000e+00 0.000000000000e+00 0.000000000000e+00 0.000000000000e+00 0.000000000000e+00 0.000000000000e+00 
        </DataArray>
        <DataArray type="Float64" Name="DILATANCY" format="ascii">
          0.000000000000e+00 0.000000000000e+00 0.000000000000e+00 0.000000000000e+00 0.000000000000e+00 0.000000000000e+00 0.000000000000e+00 0.000000000000e+00 0.000000000000e+00 0.000000000000e+00 0.000000000000e+00 0.000000000000e+00 0.000000000000e+00 0.000000000000e+00 0.000000000000e+00 0.000000000000e+00 0.000000000000e+00 0.000000000000e+00 0.000000000000e+00 0.000000000000e+00 0.000000000000e+00 0.000000000000e+00 0.000000000000e+00 0.000000000000e+00 0.000000000000e+00 0.000000000000e+00 0.000000000000e+00 0.000000000000e+00 0.000000000000e+00 0.000000000000e+00 0.000000000000e+00 0.000000000000e+00 0.000000000000e+00 0.000000000000e+00 0.000000000000e+00 0.000000000000e+00 0.000000000000e+00 0.000000000000e+00 0.000000000000e+00 0.000000000000e+00 0.000000000000e+00 0.000000000000e+00 0.000000000000e+00 0.000000000000e+00 0.000000000000e+00 0.000000000000e+00 0.000000000000e+00 0.000000000000e+00 0.000000000000e+00 0.000000000000e+00 0.000000000000e+00 0.000000000000e+00 0.000000000000e+00 0.000000000000e+00 0.000000000000e+00 0.000000000000e+00 0.000000000000e+00 0.000000000000e+00 0.000000000000e+00 0.000000000000e+00 0.000000000000e+00 0.000000000000e+00 0.000000000000e+00 0.000000000000e+00 0.000000000000e+00 0.000000000000e+00 0.000000000000e+00 0.000000000000e+00 0.000000000000e+00 0.000000000000e+00 0.000000000000e+00 0.000000000000e+00 0.000000000000e+00 0.000000000000e+00 0.000000000000e+00 0.000000000000e+00 0.000000000000e+00 0.000000000000e+00 0.000000000000e+00 0.000000000000e+00 0.000000000000e+00 0.000000000000e+00 0.000000000000e+00 0.000000000000e+00 0.000000000000e+00 0.000000000000e+00 0.000000000000e+00 0.000000000000e+00 0.000000000000e+00 0.000000000000e+00 0.000000000000e+00 0.000000000000e+00 0.000000000000e+00 0.000000000000e+00 0.000000000000e+00 0.000000000000e+00 0.000000000000e+00 0.000000000000e+00 0.000000000000e+00 0.000000000000e+00 0.000000000000e+00 0.000000000000e+00 0.000000000000e+00 0.000000000000e+00 0.000000000000e+00 0.000000000000e+00 0.000000000000e+00 0.000000000000e+00 0.000000000000e+00 0.000000000000e+00 0.000000000000e+00 0.000000000000e+00 0.000000000000e+00 0.000000000000e+00 0.000000000000e+00 0.000000000000e+00 0.000000000000e+00 0.000000000000e+00 0.000000000000e+00 0.000000000000e+00 0.000000000000e+00 
        </DataArray>
        <DataArray type="Float64" Name="NODAL_VELOCITY1" NumberOfComponents="3" format="ascii">
          8.840532057585e-01 -7.028221759038e-02 0.000000000000e+00 9.917022524003e-01 -5.013662922804e-02 0.000000000000e+00 9.799448245811e-01 -1.096396942248e-02 0.000000000000e+00 9.855160473286e-01 -4.943902849370e-03 0.000000000000e+00 9.895889168100e-01 -2.810097317866e-03 0.000000000000e+00 9.923788702353e-01 -1.783224169263e-03 0.000000000000e+00 9.942888812393e-01 -1.184437868204e-03 0.000000000000e+00 9.955789454492e-01 -7.887797549841e-04 0.000000000000e+00 9.964068228870e-01 -5.023073342884e-04 0.000000000000e+00 9.968664771875e-01 -2.771557200762e-04 0.000000000000e+00 9.971975412746e-01 -1.973569528781e-04 0.000000000000e+00 9.758970899204e-01 -6.121362360353e-02 0.000000000000e+00 9.572220463264e-01 -2.625643525300e-02 0.000000000000e+00 9.804108888721e-01 -1.355285720538e-02 0.000000000000e+00 9.863598633117e-01 -7.321442054202e-03 0.000000000000e+00 9.901793897075e-01 -4.503488527624e-03 0.000000000000e+00 9.927806114306e-01 -2.963300718589e-03 0.000000000000e+00 9.945750310841e-01 -2.001303072867e-03 0.000000000000e+00 9.957941120922e-01 -1.340270749274e-03 0.000000000000e+00 9.965790997919e-01 -8.503112399721e-04 0.000000000000e+00 9.970157574047e-01 -4.591187484198e-04 0.000000000000e+00 9.973298675112e-01 -2.686334980475e-04 0.000000000000e+00 9.913155347770e-01 -3.207317774902e-02 0.000000000000e+00 9.866971719435e-01 -2.550760623926e-02 0.000000000000e+00 9.855187598229e-01 -1.673472281776e-02 0.000000000000e+00 9.893078964125e-01 -1.096687196513e-02 0.000000000000e+00 9.920059626201e-01 -7.354109993376e-03 0.000000000000e+00 9.940029921826e-01 -5.048763697795e-03 0.000000000000e+00 9.954449482180e-01 -3.481938807118e-03 0.000000000000e+00 9.964482424456e-01 -2.353975191104e-03 0.000000000000e+00 9.971017879696e-01 -1.496114537264e-03 0.000000000000e+00 9.974666789424e-01 -8.010678105458e-04 0.000000000000e+00 9.977803785432e-01 -4.209420308365e-04 0.000000000000e+00 9.961382490433e-01 -2.347374264297e-02 0.000000000000e+00 9.942074086997e-01 -2.111228515542e-02 0.000000000000e+00 9.924782937654e-01 -1.678445466644e-02 0.000000000000e+00 9.931270109771e-01 -1.245671258203e-02 0.000000000000e+00 9.945229952291e-01 -9.027506319601e-03 0.000000000000e+00 9.957736725260e-01 -6.461945559687e-03 0.000000000000e+00 9.967456373322e-01 -4.554363674276e-03 0.000000000000e+00 9.974443074204e-01 -3.112082989319e-03 0.000000000000e+00 9.979059881974e-01 -1.986185165219e-03 0.000000000000e+00 9.981646626123e-01 -1.061398148427e-03 0.000000000000e+00 9.984475997907e-01 -5.309558290199e-04 0.000000000000e+00 9.983461380939e-01 -2.009999444788e-02 0.000000000000e+00 9.976299152246e-01 -1.885802680188e-02 0.000000000000e+00 9.967528448535e-01 -1.616534961001e-02 0.000000000000e+00 9.967808018115e-01 -1.289962938788e-02 0.000000000000e+00 9.972782057983e-01 -9.815484617447e-03 0.000000000000e+00 9.978483198040e-01 -7.230387998960e-03 0.000000000000e+00 9.983242480140e-01 -5.174584265236e-03 0.000000000000e+00 9.986754236587e-01 -3.562896480329e-03 0.000000000000e+00 9.989094167756e-01 -2.280822169538e-03 0.000000000000e+00 9.990397898679e-01 -1.217511240844e-03 0.000000000000e+00 9.992657360646e-01 -5.892138529693e-04 0.000000000000e+00 9.997437747379e-01 -1.925094300905e-02 0.000000000000e+00 9.998937529396e-01 -1.828477864051e-02 0.000000000000e+00 9.999729511862e-01 -1.599337299668e-02 0.000000000000e+00 1.000027708120e+00 -1.301366411378e-02 0.000000000000e+00 1.000046592117e+00 -1.003423078027e-02 0.000000000000e+00 1.000043891251e+00 -7.444462735057e-03 0.000000000000e+00 1.000034300837e+00 -5.346482746487e-03 0.000000000000e+00 1.000024174253e+00 -3.686728588961e-03 0.000000000000e+00 1.000015028860e+00 -2.360247277842e-03 0.000000000000e+00 1.000006873408e+00 -1.257267427745e-03 0.000000000000e+00 1.000155080968e+00 -5.911402022032e-04 0.000000000000e+00 1.001005150877e+00 -2.040338257335e-02 0.000000000000e+00 1.002137005987e+00 -1.925343770478e-02 0.000000000000e+00 1.003233459569e+00 -1.647605845242e-02 0.000000000000e+00 1.003317964229e+00 -1.301744727852e-02 0.000000000000e+00 1.002834087447e+00 -9.777724524046e-03 0.000000000000e+00 1.002243334044e+00 -7.129510129245e-03 0.000000000000e+00 1.001743962621e+00 -5.070994552388e-03 0.000000000000e+00 1.001371643061e+00 -3.478126856256e-03 0.000000000000e+00 1.001119561432e+00 -2.219140455291e-03 0.000000000000e+00 1.000973405358e+00 -1.177595302611e-03 0.000000000000e+00 1.001029508491e+00 -5.365660868508e-04 0.000000000000e+00 1.002598083655e+00 -2.418986819376e-02 0.000000000000e+00 1.005532592540e+00 -2.217401427336e-02 0.000000000000e+00 1.007727091840e+00 -1.753485704831e-02 0.000000000000e+00 1.007117862076e+00 -1.260378933066e-02 0.000000000000e+00 1.005621341335e+00 -8.832232699006e-03 0.000000000000e+00 1.004322172474e+00 -6.208490085573e-03 0.000000000000e+00 1.003318920334e+00 -4.331879317151e-03 0.000000000000e+00 1.002598134282e+00 -2.940989982986e-03 0.000000000000e+00 1.002119532511e+00 -1.865149838710e-03 0.000000000000e+00 1.001846831619e+00 -9.841181711187e-04 0.000000000000e+00 1.001804135921e+00 -4.297299259178e-04 0.000000000000e+00 1.004979252022e+00 -3.346020849576e-02 0.000000000000e+00 1.013472103586e+00 -2.845621086861e-02 0.000000000000e+00 1.015650107608e+00 -1.820908332480e-02 0.000000000000e+00 1.010957495459e+00 -1.051930420914e-02 0.000000000000e+00 1.008140702626e+00 -6.788990078916e-03 0.000000000000e+00 1.006082001889e+00 -4.580747555657e-03 0.000000000000e+00 1.004607724585e+00 -3.130126801358e-03 0.000000000000e+00 1.003584736208e+00 -2.101358677617e-03 0.000000000000e+00 1.002917533021e+00 -1.323153988992e-03 0.000000000000e+00 1.002541913945e+00 -6.923859444695e-04 0.000000000000e+00 1.002403044063e+00 -2.797693459693e-04 0.000000000000e+00 1.002300068967e+00 -6.240167305561e-02 0.000000000000e+00 1.054721582014e+00 -4.224924819913e-02 0.000000000000e+00 1.019071884950e+00 -1.030777147282e-02 0.000000000000e+00 1.013836883186e+00 -5.657228266095e-03 0.000000000000e+00 1.009911452295e+00 -3.468379721012e-03 0.000000000000e+00 1.007270379279e+00 -2.286028145185e-03 0.000000000000e+00 1.005455067649e+00 -1.542170519340e-03 0.000000000000e+00 1.004224130531e+00 -1.026664519712e-03 0.000000000000e+00 1.003431388258e+00 -6.408704719454e-04 0.000000000000e+00 1.002988862966e+00 -3.291449704091e-04 0.000000000000e+00 1.002766787227e+00 -1.009152938582e-04 0.000000000000e+00 1.105555995819e+00 -1.035097099057e-01 0.000000000000e+00 1.007142237991e+00 -1.618345112788e-02 0.000000000000e+00 1.022774672066e+00 -4.821095846208e-03 0.000000000000e+00 1.015023662576e+00 -2.548905216170e-03 0.000000000000e+00 1.010632732784e+00 -1.551156887441e-03 0.000000000000e+00 1.007728731574e+00 -1.016569970051e-03 0.000000000000e+00 1.005772120632e+00 -6.828377860608e-04 0.000000000000e+00 1.004459035317e+00 -4.522658998306e-04 0.000000000000e+00 1.003617950824e+00 -2.796192048737e-04 0.000000000000e+00 1.003149705568e+00 -1.396032009327e-04 0.000000000000e+00 1.002915320756e+00 -2.030009602960e-05 0.000000000000e+00 
        </DataArray>
        <DataArray type="Float64" Name="DISPLACEMENT" NumberOfComponents="3" format="ascii">
          0.000000000000e+00 0.000000000000e+00 0.000000000000e+00 8.853764482173e-04 0.000000000000e+00 0.000000000000e+00 1.646398881873e-03 0.000000000000e+00 0.000000000000e+00 2.294178518584e-03 0.000000000000e+00 0.000000000000e+00 2.838019682622e-03 0.000000000000e+00 0.000000000000e+00 3.284811543834e-03 0.000000000000e+00 0.000000000000e+00 3.638645944085e-03 0.000000000000e+00 0.000000000000e+00 3.900561419389e-03 0.000000000000e+00 0.000000000000e+00 4.068269038025e-03 0.000000000000e+00 0.000000000000e+00 4.135705925723e-03 0.000000000000e+00 0.000000000000e+00 4.092239197265e-03 0.000000000000e+00 0.000000000000e+00 0.000000000000e+00 7.157421430081e-04 0.000000000000e+00 8.860615120513e-04 7.068512646536e-04 0.000000000000e+00 1.647873207899e-03 6.808431095863e-04 0.000000000000e+00 2.296616378754e-03 6.396304677335e-04 0.000000000000e+00 2.841592236722e-03 5.861205229585e-04 0.000000000000e+00 3.289630748977e-03 5.239115023648e-04 0.000000000000e+00 3.644744985127e-03 4.570565684456e-04 0.000000000000e+00 3.907924722151e-03 3.899750511603e-04 0.000000000000e+00 4.076911662715e-03 3.275458243200e-04 0.000000000000e+00 4.145789434483e-03 2.753692080924e-04 0.000000000000e+00 4.104195268101e-03 2.401318854658e-04 0.000000000000e+00 0.000000000000e+00 1.435623369226e-03 0.000000000000e+00 8.883932089028e-04 1.417554721701e-03 0.000000000000e+00 1.652872521160e-03 1.364755693413e-03 0.000000000000e+00 2.304815475395e-03 1.281221456416e-03 0.000000000000e+00 2.853500510014e-03 1.172954764062e-03 0.000000000000e+00 3.305555977367e-03 1.047282238117e-03 0.000000000000e+00 3.664734346326e-03 9.123299267635e-04 0.000000000000e+00 3.931859401033e-03 7.768281412731e-04 0.000000000000e+00 4.104752117915e-03 6.503108253318e-04 0.000000000000e+00 4.177936454925e-03 5.436858688588e-04 0.000000000000e+00 4.141888480028e-03 4.700591621030e-04 0.000000000000e+00 0.000000000000e+00 2.163514369309e-03 0.000000000000e+00 8.932412574030e-04 2.135672970077e-03 0.000000000000e+00 1.663177622684e-03 2.054451942091e-03 0.000000000000e+00 2.321502995811e-03 1.926315536850e-03 0.000000000000e+00 2.877396545744e-03 1.760785005742e-03 0.000000000000e+00 3.337066352744e-03 1.569195359194e-03 0.000000000000e+00 3.703753760415e-03 1.363783967537e-03 0.000000000000e+00 3.977948069690e-03 1.157363739670e-03 0.000000000000e+00 4.157564943675e-03 9.636520706795e-04 0.000000000000e+00 4.237861244895e-03 7.982276076633e-04 0.000000000000e+00 4.210792535163e-03 6.799895332173e-04 0.000000000000e+00 0.000000000000e+00 2.902796744972e-03 0.000000000000e+00 9.021508840360e-04 2.864200648242e-03 0.000000000000e+00 1.681946726601e-03 2.751914766009e-03 0.000000000000e+00 2.351490275795e-03 2.575593837437e-03 0.000000000000e+00 2.919662401383e-03 2.349021190524e-03 0.000000000000e+00 3.391895618862e-03 2.087992997092e-03 0.000000000000e+00 3.770575533448e-03 1.808899120402e-03 0.000000000000e+00 4.055636364457e-03 1.528263411778e-03 0.000000000000e+00 4.245069369214e-03 1.263233696996e-03 0.000000000000e+00 4.335147050059e-03 1.032993435262e-03 0.000000000000e+00 4.320036515107e-03 8.610648753687e-04 0.000000000000e+00 0.000000000000e+00 3.656056689699e-03 0.000000000000e+00 9.175316852980e-04 3.605199210345e-03 0.000000000000e+00 1.714100434190e-03 3.457910724670e-03 0.000000000000e+00 2.402201203753e-03 3.228338586520e-03 0.000000000000e+00 2.989964259725e-03 2.935723764673e-03 0.000000000000e+00 3.481489683830e-03 2.600932426514e-03 0.000000000000e+00 3.877898429020e-03 2.244486165797e-03 0.000000000000e+00 4.178369618893e-03 1.886072250757e-03 0.000000000000e+00 4.380962876481e-03 1.545227426049e-03 0.000000000000e+00 4.483222059175e-03 1.243172363976e-03 0.000000000000e+00 4.482307170678e-03 1.006077369134e-03 0.000000000000e+00 0.000000000000e+00 4.424671665006e-03 0.000000000000e+00 9.430714987481e-04 4.359261980562e-03 0.000000000000e+00 1.767144931959e-03 4.171280208526e-03 0.000000000000e+00 2.484745146388e-03 3.881746867395e-03 0.000000000000e+00 3.102290990442e-03 3.517133325114e-03 0.000000000000e+00 3.621767157695e-03 3.103971766928e-03 0.000000000000e+00 4.042722649557e-03 2.666661898273e-03 0.000000000000e+00 4.363614973110e-03 2.227300682673e-03 0.000000000000e+00 4.582717816401e-03 1.806572129589e-03 0.000000000000e+00 4.699057311394e-03 1.425708963621e-03 0.000000000000e+00 4.713456889379e-03 1.110470285769e-03 0.000000000000e+00 0.000000000000e+00 5.208133940610e-03 0.000000000000e+00 9.846674433835e-04 5.124573357455e-03 0.000000000000e+00 1.852962868226e-03 4.887758999445e-03 0.000000000000e+00 2.616055843843e-03 4.530053988557e-03 0.000000000000e+00 3.276802505054e-03 4.087365347705e-03 0.000000000000e+00 3.834298732797e-03 3.591925701951e-03 0.000000000000e+00 4.286757156476e-03 3.071217590267e-03 0.000000000000e+00 4.632575500593e-03 2.548798431122e-03 0.000000000000e+00 4.870827703487e-03 2.045327695818e-03 0.000000000000e+00 5.002233006237e-03 1.579923658014e-03 0.000000000000e+00 5.031488849408e-03 1.173676774963e-03 0.000000000000e+00 0.000000000000e+00 6.002724219793e-03 0.000000000000e+00 1.052765154862e-03 5.894914323306e-03 0.000000000000e+00 1.991916856960e-03 5.597894109674e-03 0.000000000000e+00 2.823025622818e-03 5.163654271654e-03 0.000000000000e+00 3.542828242682e-03 4.638721950567e-03 0.000000000000e+00 4.147949608607e-03 4.059418840945e-03 0.000000000000e+00 4.636801643640e-03 3.454746507459e-03 0.000000000000e+00 5.009405655132e-03 2.848701941355e-03 0.000000000000e+00 5.267057867376e-03 2.261238941832e-03 0.000000000000e+00 5.412742117638e-03 1.708043627300e-03 0.000000000000e+00 5.454325093949e-03 1.200772009551e-03 0.000000000000e+00 0.000000000000e+00 6.798362656520e-03 0.000000000000e+00 1.169700763924e-03 6.654512789733e-03 0.000000000000e+00 2.222788854491e-03 6.283943108231e-03 0.000000000000e+00 3.149590115806e-03 5.769486039498e-03 0.000000000000e+00 3.942764748868e-03 5.163570592127e-03 0.000000000000e+00 4.600692669096e-03 4.503118025995e-03 0.000000000000e+00 5.125127435453e-03 3.816877954272e-03 0.000000000000e+00 5.520088622252e-03 3.128451285529e-03 0.000000000000e+00 5.791379118829e-03 2.457015484609e-03 0.000000000000e+00 5.946319021760e-03 1.815454703677e-03 0.000000000000e+00 5.995075979558e-03 1.204136707870e-03 0.000000000000e+00 0.000000000000e+00 7.566439333557e-03 0.000000000000e+00 1.403579991547e-03 7.363796592765e-03 0.000000000000e+00 2.623246264175e-03 6.921724536443e-03 0.000000000000e+00 3.664603178572e-03 6.336294477524e-03 0.000000000000e+00 4.534717630502e-03 5.658813276210e-03 0.000000000000e+00 5.240653639679e-03 4.925202101414e-03 0.000000000000e+00 5.790154717471e-03 4.163443892455e-03 0.000000000000e+00 6.192360607029e-03 3.396346017631e-03 0.000000000000e+00 6.458912873710e-03 2.642073533739e-03 0.000000000000e+00 6.605488696302e-03 1.911988439364e-03 0.000000000000e+00 6.651427329711e-03 1.202323778816e-03 0.000000000000e+00 
        </DataArray>
        <DataArray type="Float64" Name="DENSITY" format="ascii">
          8.917079500000e-07 9.025371554343e-07 9.133663608255e-07 9.241955661352e-07 9.350247713331e-07 9.458539764001e-07 9.566831813300e-07 9.675123861302e-07 9.783415908205e-07 9.891707954312e-07 1.000000000000e-06 8.917079500000e-07 9.025371554343e-07 9.133663608255e-07 9.241955661352e-07 9.350247713331e-07 9.458539764001e-07 9.566831813300e-07 9.675123861302e-07 9.783415908205e-07 9.891707954312e-07 1.000000000000e-06 8.917079500000e-07 9.025371554343e-07 9.133663608255e-07 9.241955661352e-07 9.350247713331e-07 9.458539764001e-07 9.566831813300e-07 9.675123861302e-07 9.783415908205e-07 9.891707954312e-07 1.000000000000e-06 8.917079500000e-07 9.025371554343e-07 9.133663608255e-07 9.241955661352e-07 9.350247713331e-07 9.458539764001e-07 9.566831813300e-07 9.675123861302e-07 9.783415908205e-07 9.891707954312e-07 1.000000000000e-06 8.917079500000e-07 9.025371554343e-07 9.133663608255e-07 9.241955661352e-07 9.350247713331e-07 9.458539764001e-07 9.566831813300e-07 9.675123861302e-07 9.783415908205e-07 9.891707954312e-07 1.000000000000e-06 8.917079500000e-07 9.025371554343e-07 9.133663608255e-07 9.241955661352e-07 9.350247713331e-07 9.458539764001e-07 9.566831813300e-07 9.675123861302e-07 9.783415908205e-07 9.891707954312e-07 1.000000000000e-06 8.917079500000e-07 9.025371554343e-07 9.133663608255e-07 9.241955661352e-07 9.350247713331e-07 9.458539764001e-07 9.566831813300e-07 9.675123861302e-07 9.783415908205e-07 9.891707954312e-07 1.000000000000e-06 8.917079500000e-07 9.025371554343e-07 9.133663608255e-07 9.241955661352e-07 9.350247713331e-07 9.458539764001e-07 9.566831813300e-07 9.675123861302e-07 9.783415908205e-07 9.891707954312e-07 1.000000000000e-06 8.917079500000e-07 9.025371554343e-07 9.133663608255e-07 9.241955661352e-07 9.350247713331e-07 9.458539764001e-07 9.566831813300e-07 9.675123861302e-07 9.783415908205e-07 9.891707954312e-07 1.000000000000e-06 8.917079500000e-07 9.025371554343e-07 9.133663608255e-07 9.241955661352e-07 9.350247713331e-07 9.458539764001e-07 9.566831813300e-07 9.675123861302e-07 9.783415908205e-07 9.891707954312e-07 1.000000000000e-06 8.917079500000e-07 9.025371554343e-07 9.133663608255e-07 9.241955661352e-07 9.350247713331e-07 9.458539764001e-07 9.566831813300e-07 9.675123861302e-07 9.783415908205e-07 9.891707954312e-07 1.000000000000e-06 
        </DataArray>
        <DataArray type="Float64" Name="VISCOSITY" format="ascii">
          1.278000000000e-09 1.278000000000e-09 1.278000000000e-09 1.278000000000e-09 1.278000000000e-09 1.278000000000e-09 1.278000000000e-09 1.278000000000e-09 1.278000000000e-09 1.278000000000e-09 1.278000000000e-09 1.278000000000e-09 1.278000000000e-09 1.278000000000e-09 1.278000000000e-09 1.278000000000e-09 1.278000000000e-09 1.278000000000e-09 1.278000000000e-09 1.278000000000e-09 1.278000000000e-09 1.278000000000e-09 1.278000000000e-09 1.278000000000e-09 1.278000000000e-09 1.278000000000e-09 1.278000000000e-09 1.278000000000e-09 1.278000000000e-09 1.278000000000e-09 1.278000000000e-09 1.278000000000e-09 1.278000000000e-09 1.278000000000e-09 1.278000000000e-09 1.278000000000e-09 1.278000000000e-09 1.278000000000e-09 1.278000000000e-09 1.278000000000e-09 1.278000000000e-09 1.278000000000e-09 1.278000000000e-09 1.278000000000e-09 1.278000000000e-09 1.278000000000e-09 1.278000000000e-09 1.278000000000e-09 1.278000000000e-09 1.278000000000e-09 1.278000000000e-09 1.278000000000e-09 1.278000000000e-09 1.278000000000e-09 1.278000000000e-09 1.278000000000e-09 1.278000000000e-09 1.278000000000e-09 1.278000000000e-09 1.278000000000e-09 1.278000000000e-09 1.278000000000e-09 1.278000000000e-09 1.278000000000e-09 1.278000000000e-09 1.278000000000e-09 1.278000000000e-09 1.278000000000e-09 1.278000000000e-09 1.278000000000e-09 1.278000000000e-09 1.278000000000e-09 1.278000000000e-09 1.278000000000e-09 1.278000000000e-09 1.278000000000e-09 1.278000000000e-09 1.278000000000e-09 1.278000000000e-09 1.278000000000e-09 1.278000000000e-09 1.278000000000e-09 1.278000000000e-09 1.278000000000e-09 1.278000000000e-09 1.278000000000e-09 1.278000000000e-09 1.278000000000e-09 1.278000000000e-09 1.278000000000e-09 1.278000000000e-09 1.278000000000e-09 1.278000000000e-09 1.278000000000e-09 1.278000000000e-09 1.278000000000e-09 1.278000000000e-09 1.278000000000e-09 1.278000000000e-09 1.278000000000e-09 1.278000000000e-09 1.278000000000e-09 1.278000000000e-09 1.278000000000e-09 1.278000000000e-09 1.278000000000e-09 1.278000000000e-09 1.278000000000e-09 1.278000000000e-09 1.278000000000e-09 1.278000000000e-09 1.278000000000e-09 1.278000000000e-09 1.278000000000e-09 1.278000000000e-09 1.278000000000e-09 1.278000000000e-09 1.278000000000e-09 1.278000000000e-09 1.278000000000e-09 1.278000000000e-09 
        </DataArray>
        <DataArray type="Float64" Name="SPECIFIC_HEAT_CAPACITY" format="ascii">
          4.680000000000e+03 4.680000000000e+03 4.680000000000e+03 4.680000000000e+03 4.680000000000e+03 4.680000000000e+03 4.680000000000e+03 4.680000000000e+03 4.680000000000e+03 4.680000000000e+03 4.680000000000e+03 4.680000000000e+03 4.680000000000e+03 4.680000000000e+03 4.680000000000e+03 4.680000000000e+03 4.680000000000e+03 4.680000000000e+03 4.680000000000e+03 4.680000000000e+03 4.680000000000e+03 4.680000000000e+03 4.680000000000e+03 4.680000000000e+03 4.680000000000e+03 4.680000000000e+03 4.680000000000e+03 4.680000000000e+03 4.680000000000e+03 4.680000000000e+03 4.680000000000e+03 4.680000000000e+03 4.680000000000e+03 4.680000000000e+03 4.680000000000e+03 4.680000000000e+03 4.680000000000e+03 4.680000000000e+03 4.680000000000e+03 4.680000000000e+03 4.680000000000e+03 4.680000000000e+03 4.680000000000e+03 4.680000000000e+03 4.680000000000e+03 4.680000000000e+03 4.680000000000e+03 4.680000000000e+03 4.680000000000e+03 4.680000000000e+03 4.680000000000e+03 4.680000000000e+03 4.680000000000e+03 4.680000000000e+03 4.680000000000e+03 4.680000000000e+03 4.680000000000e+03 4.680000000000e+03 4.680000000000e+03 4.680000000000e+03 4.680000000000e+03 4.680000000000e+03 4.680000000000e+03 4.680000000000e+03 4.680000000000e+03 4.680000000000e+03 4.680000000000e+03 4.680000000000e+03 4.680000000000e+03 4.680000000000e+03 4.680000000000e+03 4.680000000000e+03 4.680000000000e+03 4.680000000000e+03 4.680000000000e+03 4.680000000000e+03 4.680000000000e+03 4.680000000000e+03 4.680000000000e+03 4.680000000000e+03 4.680000000000e+03 4.680000000000e+03 4.680000000000e+03 4.680000000000e+03 4.680000000000e+03 4.680000000000e+03 4.680000000000e+03 4.680000000000e+03 4.680000000000e+03 4.680000000000e+03 4.680000000000e+03 4.680000000000e+03 4.680000000000e+03 4.680000000000e+03 4.680000000000e+03 4.680000000000e+03 4.680000000000e+03 4.680000000000e+03 4.680000000000e+03 4.680000000000e+03 4.680000000000e+03 4.680000000000e+03 4.680000000000e+03 4.680000000000e+03 4.680000000000e+03 4.680000000000e+03 4.680000000000e+03 4.680000000000e+03 4.680000000000e+03 4.680000000000e+03 4.680000000000e+03 4.680000000000e+03 4.680000000000e+03 4.680000000000e+03 4.680000000000e+03 4.680000000000e+03 4.680000000000e+03 4.680000000000e+03 4.680000000000e+03 4.680000000000e+03 4.680000000000e+03 
        </DataArray>
        <DataArray type="Float64" Name="HEAT_CONDUCTIVITY" format="ascii">
          6.000000000000e-01 6.000000000000e-01 6.000000000000e-01 6.000000000000e-01 6.000000000000e-01 6.000000000000e-01 6.000000000000e-01 6.000000000000e-01 6.000000000000e-01 6.000000000000e-01 6.000000000000e-01 6.000000000000e-01 6.000000000000e-01 6.000000000000e-01 6.000000000000e-01 6.000000000000e-01 6.000000000000e-01 6.000000000000e-01 6.000000000000e-01 6.000000000000e-01 6.000000000000e-01 6.000000000000e-01 6.000000000000e-01 6.000000000000e-01 6.000000000000e-01 6.000000000000e-01 6.000000000000e-01 6.000000000000e-01 6.000000000000e-01 6.000000000000e-01 6.000000000000e-01 6.000000000000e-01 6.000000000000e-01 6.000000000000e-01 6.000000000000e-01 6.000000000000e-01 6.000000000000e-01 6.000000000000e-01 6.000000000000e-01 6.000000000000e-01 6.000000000000e-01 6.000000000000e-01 6.000000000000e-01 6.000000000000e-01 6.000000000000e-01 6.000000000000e-01 6.000000000000e-01 6.000000000000e-01 6.000000000000e-01 6.000000000000e-01 6.000000000000e-01 6.000000000000e-01 6.000000000000e-01 6.000000000000e-01 6.000000000000e-01 6.000000000000e-01 6.000000000000e-01 6.000000000000e-01 6.000000000000e-01 6.000000000000e-01 6.000000000000e-01 6.000000000000e-01 6.000000000000e-01 6.000000000000e-01 6.000000000000e-01 6.000000000000e-01 6.000000000000e-01 6.000000000000e-01 6.000000000000e-01 6.000000000000e-01 6.000000000000e-01 6.000000000000e-01 6.000000000000e-01 6.000000000000e-01 6.000000000000e-01 6.000000000000e-01 6.000000000000e-01 6.000000000000e-01 6.000000000000e-01 6.000000000000e-01 6.000000000000e-01 6.000000000000e-01 6.000000000000e-01 6.000000000000e-01 6.000000000000e-01 6.000000000000e-01 6.000000000000e-01 6.000000000000e-01 6.000000000000e-01 6.000000000000e-01 6.000000000000e-01 6.000000000000e-01 6.000000000000e-01 6.000000000000e-01 6.000000000000e-01 6.000000000000e-01 6.000000000000e-01 6.000000000000e-01 6.000000000000e-01 6.000000000000e-01 6.000000000000e-01 6.000000000000e-01 6.000000000000e-01 6.000000000000e-01 6.000000000000e-01 6.000000000000e-01 6.000000000000e-01 6.000000000000e-01 6.000000000000e-01 6.000000000000e-01 6.000000000000e-01 6.000000000000e-01 6.000000000000e-01 6.000000000000e-01 6.000000000000e-01 6.000000000000e-01 6.000000000000e-01 6.000000000000e-01 6.000000000000e-01 6.000000000000e-01 6.000000000000e-01 
        </DataArray>
      </PointData>
      <CellData>
        <DataArray type="Float64" Name="DENSITY" format="ascii">
          8.971225527171e-07 9.079517581299e-07 9.187809634804e-07 9.296101687342e-07 9.404393738666e-07 9.512685788650e-07 9.620977837301e-07 9.729269884754e-07 9.837561931258e-07 9.945853977156e-07 8.971225527171e-07 9.079517581299e-07 9.187809634804e-07 9.296101687342e-07 9.404393738666e-07 9.512685788650e-07 9.620977837301e-07 9.729269884754e-07 9.837561931258e-07 9.945853977156e-07 8.971225527171e-07 9.079517581299e-07 9.187809634804e-07 9.296101687342e-07 9.404393738666e-07 9.512685788650e-07 9.620977837301e-07 9.729269884754e-07 9.837561931258e-07 9.945853977156e-07 8.971225527171e-07 9.079517581299e-07 9.187809634804e-07 9.296101687342e-07 9.404393738666e-07 9.512685788650e-07 9.620977837301e-07 9.729269884754e-07 9.837561931258e-07 9.945853977156e-07 8.971225527171e-07 9.079517581299e-07 9.187809634804e-07 9.296101687342e-07 9.404393738666e-07 9.512685788650e-07 9.620977837301e-07 9.729269884754e-07 9.837561931258e-07 9.945853977156e-07 8.971225527171e-07 9.079517581299e-07 9.187809634804e-07 9.296101687342e-07 9.404393738666e-07 9.512685788650e-07 9.620977837301e-07 9.729269884754e-07 9.837561931258e-07 9.945853977156e-07 8.971225527171e-07 9.079517581299e-07 9.187809634804e-07 9.296101687342e-07 9.404393738666e-07 9.512685788650e-07 9.620977837301e-07 9.729269884754e-07 9.837561931258e-07 9.945853977156e-07 8.971225527171e-07 9.079517581299e-07 9.187809634804e-07 9.296101687342e-07 9.404393738666e-07 9.512685788650e-07 9.620977837301e-07 9.729269884754e-07 9.837561931258e-07 9.945853977156e-07 8.971225527171e-07 9.079517581299e-07 9.187809634804e-07 9.296101687342e-07 9.404393738666e-07 9.512685788650e-07 9.620977837301e-07 9.729269884754e-07 9.837561931258e-07 9.945853977156e-07 8.971225527171e-07 9.079517581299e-07 9.187809634804e-07 9.296101687342e-07 9.404393738666e-07 9.512685788650e-07 9.620977837301e-07 9.729269884754e-07 9.837561931258e-07 9.945853977156e-07 
        </DataArray>
        <DataArray type="Float64" Name="VISCOSITY" format="ascii">
          1.278000000000e-09 1.278000000000e-09 1.278000000000e-09 1.278000000000e-09 1.278000000000e-09 1.278000000000e-09 1.278000000000e-09 1.278000000000e-09 1.278000000000e-09 1.278000000000e-09 1.278000000000e-09 1.278000000000e-09 1.278000000000e-09 1.278000000000e-09 1.278000000000e-09 1.278000000000e-09 1.278000000000e-09 1.278000000000e-09 1.278000000000e-09 1.278000000000e-09 1.278000000000e-09 1.278000000000e-09 1.278000000000e-09 1.278000000000e-09 1.278000000000e-09 1.278000000000e-09 1.278000000000e-09 1.278000000000e-09 1.278000000000e-09 1.278000000000e-09 1.278000000000e-09 1.278000000000e-09 1.278000000000e-09 1.278000000000e-09 1.278000000000e-09 1.278000000000e-09 1.278000000000e-09 1.278000000000e-09 1.278000000000e-09 1.278000000000e-09 1.278000000000e-09 1.278000000000e-09 1.278000000000e-09 1.278000000000e-09 1.278000000000e-09 1.278000000000e-09 1.278000000000e-09 1.278000000000e-09 1.278000000000e-09 1.278000000000e-09 1.278000000000e-09 1.278000000000e-09 1.278000000000e-09 1.278000000000e-09 1.278000000000e-09 1.278000000000e-09 1.278000000000e-09 1.278000000000e-09 1.278000000000e-09 1.278000000000e-09 1.278000000000e-09 1.278000000000e-09 1.278000000000e-09 1.278000000000e-09 1.278000000000e-09 1.278000000000e-09 1.278000000000e-09 1.278000000000e-09 1.278000000000e-09 1.278000000000e-09 1.278000000000e-09 1.278000000000e-09 1.278000000000e-09 1.278000000000e-09 1.278000000000e-09 1.278000000000e-09 1.278000000000e-09 1.278000000000e-09 1.278000000000e-09 1.278000000000e-09 1.278000000000e-09 1.278000000000e-09 1.278000000000e-09 1.278000000000e-09 1.278000000000e-09 1.278000000000e-09 1.278000000000e-09 1.278000000000e-09 1.278000000000e-09 1.278000000000e-09 1.278000000000e-09 1.278000000000e-09 1.278000000000e-09 1.278000000000e-09 1.278000000000e-09 1.278000000000e-09 1.278000000000e-09 1.278000000000e-09 1.278000000000e-09 1.278000000000e-09 
        </DataArray>
      </CellData>
    </Piece>
  </UnstructuredGrid>
</VTKFile>
