"PRESSURE1","TEMPERATURE1","STRESS_XX","STRESS_XY","STRESS_YY","STRESS_ZZ","STRAIN_XX","STRAIN_XY","STRAIN_YY","STRAIN_ZZ","STRAIN_PLS","DILATANCY","NODAL_VELOCITY1:0","NODAL_VELOCITY1:1","NODAL_VELOCITY1:2","DISPLACEMENT:0","DISPLACEMENT:1","DISPLACEMENT:2","DENSITY","VISCOSITY","SPECIFIC_HEAT_CAPACITY","HEAT_CONDUCTIVITY","vtkValidPointMask","arc_length","Points:0","Points:1","Points:2"
1.278000000000000e-01,5.231500000000000e+02,1.211692499548000e-01,2.232859016747000e-05,1.190807524369000e-01,1.722308796773000e-03,7.394334452638000e-03,2.764492115972000e-06,7.265046511058000e-03,0.000000000000000e+00,0.000000000000000e+00,0.000000000000000e+00,9.999999999998001e+01,0.000000000000000e+00,0.000000000000000e+00,0.000000000000000e+00,0.000000000000000e+00,0.000000000000000e+00,9.503199999999999e-07,1.278000000000000e-09,4.680000000000000e+03,6.000000000000000e-01,1,0.000000000000000e+00,0.000000000000000e+00,0.000000000000000e+00,0.000000000000000e+00
1.276721999939296e-01,5.229499999903776e+02,1.210533926147943e-01,2.007281698011177e-05,1.190789070397273e-01,1.743942666552922e-03,7.385823092032265e-03,2.485205911822909e-06,7.263593032627586e-03,0.000000000000000e+00,0.000000000000000e+00,0.000000000000000e+00,9.999999999998002e+01,3.257696823238804e-15,0.000000000000000e+00,7.247123287629363e-06,0.000000000000000e+00,0.000000000000000e+00,9.503614000019915e-07,1.278000000000000e-09,4.680000000000000e+03,6.000000000000000e-01,1,1.000000047497451e-03,1.000000047497451e-03,0.000000000000000e+00,0.000000000000000e+00
1.275443999878591e-01,5.227499999807552e+02,1.209375352747887e-01,1.781704379275353e-05,1.190770616425547e-01,1.765576536332844e-03,7.377311731426530e-03,2.205919707673818e-06,7.262139554197171e-03,0.000000000000000e+00,0.000000000000000e+00,0.000000000000000e+00,9.999999999997999e+01,6.515393646477608e-15,0.000000000000000e+00,1.449424657525873e-05,0.000000000000000e+00,0.000000000000000e+00,9.504028000039829e-07,1.278000000000000e-09,4.680000000000000e+03,5.999999999999999e-01,1,2.000000094994903e-03,2.000000094994903e-03,0.000000000000000e+00,0.000000000000000e+00
1.274165999966666e-01,5.225499999944159e+02,1.208216779482706e-01,1.556127086800185e-05,1.190752162455969e-01,1.787210403594252e-03,7.368800371811647e-03,1.926633536037919e-06,7.260686075935963e-03,0.000000000000000e+00,0.000000000000000e+00,0.000000000000000e+00,9.999999999998001e+01,9.773090090470606e-15,0.000000000000000e+00,2.174136901921194e-05,0.000000000000000e+00,0.000000000000000e+00,9.504442000011548e-07,1.278000000000000e-09,4.680000000000000e+03,6.000000000000000e-01,1,3.000000026077032e-03,3.000000026077032e-03,0.000000000000000e+00,0.000000000000000e+00
1.272887999757183e-01,5.223499999615104e+02,1.207058205947774e-01,1.330549741803707e-05,1.190733708482094e-01,1.808844275892688e-03,7.360289010215060e-03,1.647347299375637e-06,7.259232597336342e-03,0.000000000000000e+00,0.000000000000000e+00,0.000000000000000e+00,9.999999999998002e+01,1.303078729295522e-14,0.000000000000000e+00,2.898849315051745e-05,0.000000000000000e+00,0.000000000000000e+00,9.504856000079658e-07,1.278000000000000e-09,4.680000000000000e+03,6.000000000000000e-01,1,4.000000189989805e-03,4.000000189989805e-03,0.000000000000000e+00,0.000000000000000e+00
1.271610000142815e-01,5.221500000217372e+02,1.205899632952344e-01,1.104972501849848e-05,1.190715254516812e-01,1.830478138117068e-03,7.351777652581883e-03,1.368061192766121e-06,7.257779119413549e-03,0.000000000000000e+00,0.000000000000000e+00,0.000000000000000e+00,9.999999999997999e+01,1.628848297845660e-14,0.000000000000000e+00,3.623561390711837e-05,0.000000000000000e+00,0.000000000000000e+00,9.505269999954985e-07,1.278000000000000e-09,4.680000000000000e+03,6.000000000000000e-01,1,4.999999888241291e-03,4.999999888241291e-03,0.000000000000000e+00,0.000000000000000e+00
1.270331999933332e-01,5.219499999888318e+02,1.204741059417412e-01,8.793951568533698e-06,1.190696800542937e-01,1.852112010415504e-03,7.343266290985296e-03,1.088774956103839e-06,7.256325640813927e-03,0.000000000000000e+00,0.000000000000000e+00,0.000000000000000e+00,9.999999999998001e+01,1.954618018094121e-14,0.000000000000000e+00,4.348273803842388e-05,0.000000000000000e+00,0.000000000000000e+00,9.505684000023096e-07,1.278000000000000e-09,4.680000000000000e+03,6.000000000000000e-01,1,6.000000052154064e-03,6.000000052154064e-03,0.000000000000000e+00,0.000000000000000e+00
1.269053999723849e-01,5.217499999559263e+02,1.203582485882480e-01,6.538178118568915e-06,1.190678346569063e-01,1.873745882713940e-03,7.334754929388708e-03,8.094887194415558e-07,7.254872162214306e-03,0.000000000000000e+00,0.000000000000000e+00,0.000000000000000e+00,9.999999999998002e+01,2.280387738342582e-14,0.000000000000000e+00,5.072986216972940e-05,0.000000000000000e+00,0.000000000000000e+00,9.506098000091208e-07,1.278000000000000e-09,4.680000000000000e+03,6.000000000000001e-01,1,7.000000216066837e-03,7.000000216066837e-03,0.000000000000000e+00,0.000000000000000e+00
1.267775999514366e-01,5.215499999230209e+02,1.202423912347547e-01,4.282404668604130e-06,1.190659892595188e-01,1.895379755012375e-03,7.326243567792120e-03,5.302024827792730e-07,7.253418683614684e-03,0.000000000000000e+00,0.000000000000000e+00,0.000000000000000e+00,9.999999999998001e+01,2.606157458591043e-14,0.000000000000000e+00,5.797698630103491e-05,0.000000000000000e+00,0.000000000000000e+00,9.506512000159317e-07,1.278000000000000e-09,4.680000000000000e+03,6.000000000000000e-01,1,8.000000379979610e-03,8.000000379979610e-03,0.000000000000000e+00,0.000000000000000e+00
1.266498000495113e-01,5.213500000763800e+02,1.201265339891621e-01,2.026633319491743e-06,1.190641438638499e-01,1.917013607162701e-03,7.317732214122355e-03,2.509165062225248e-07,7.251965206368720e-03,0.000000000000000e+00,0.000000000000000e+00,0.000000000000000e+00,9.999999999998001e+01,2.931926875442859e-14,0.000000000000000e+00,6.522410368293123e-05,0.000000000000000e+00,0.000000000000000e+00,9.506925999841861e-07,1.278000000000000e-09,4.680000000000000e+03,6.000000000000000e-01,1,8.999999612569809e-03,8.999999612569809e-03,0.000000000000000e+00,0.000000000000000e+00
1.265220000285630e-01,5.211500000434744e+02,1.200106766356688e-01,-2.291401304730422e-07,1.190622984664624e-01,1.938647479461136e-03,7.309220852525767e-03,-2.836973043975802e-08,7.250511727769098e-03,0.000000000000000e+00,0.000000000000000e+00,0.000000000000000e+00,9.999999999997999e+01,3.257696595691320e-14,0.000000000000000e+00,7.247122781423673e-05,0.000000000000000e+00,0.000000000000000e+00,9.507339999909970e-07,1.278000000000000e-09,4.680000000000000e+03,5.999999999999999e-01,1,9.999999776482582e-03,9.999999776482582e-03,0.000000000000000e+00,0.000000000000000e+00
1.263942000076146e-01,5.209500000105689e+02,1.198948192821756e-01,-2.484913580437824e-06,1.190604530690750e-01,1.960281351759571e-03,7.300709490929179e-03,-3.076559671020400e-07,7.249058249169476e-03,0.000000000000000e+00,0.000000000000000e+00,0.000000000000000e+00,9.999999999998001e+01,3.583466315939781e-14,0.000000000000000e+00,7.971835194554223e-05,0.000000000000000e+00,0.000000000000000e+00,9.507753999978082e-07,1.278000000000000e-09,4.680000000000000e+03,5.999999999999999e-01,1,1.099999994039536e-02,1.099999994039536e-02,0.000000000000000e+00,0.000000000000000e+00
1.262663999866664e-01,5.207499999776635e+02,1.197789619286824e-01,-4.740687030402606e-06,1.190586076716875e-01,1.981915224058008e-03,7.292198129332591e-03,-5.869422037643229e-07,7.247604770569856e-03,0.000000000000000e+00,0.000000000000000e+00,0.000000000000000e+00,9.999999999998001e+01,3.909236036188242e-14,0.000000000000000e+00,8.696547607684776e-05,0.000000000000000e+00,0.000000000000000e+00,9.508168000046193e-07,1.278000000000000e-09,4.680000000000000e+03,6.000000000000000e-01,1,1.200000010430813e-02,1.200000010430813e-02,0.000000000000000e+00,0.000000000000000e+00
1.261385999657181e-01,5.205499999447582e+02,1.196631045751891e-01,-6.996460480367389e-06,1.190567622743000e-01,2.003549096356444e-03,7.283686767736004e-03,-8.662284404266053e-07,7.246151291970234e-03,0.000000000000000e+00,0.000000000000000e+00,0.000000000000000e+00,9.999999999998002e+01,4.235005756436703e-14,0.000000000000000e+00,9.421260020815328e-05,0.000000000000000e+00,0.000000000000000e+00,9.508582000114304e-07,1.278000000000000e-09,4.680000000000000e+03,6.000000000000000e-01,1,1.300000026822090e-02,1.300000026822090e-02,0.000000000000000e+00,0.000000000000000e+00
1.260107999447697e-01,5.203499999118526e+02,1.195472472216959e-01,-9.252233930332173e-06,1.190549168769125e-01,2.025182968654879e-03,7.275175406139416e-03,-1.145514677088888e-06,7.244697813370612e-03,0.000000000000000e+00,0.000000000000000e+00,0.000000000000000e+00,9.999999999998002e+01,4.560775476685164e-14,0.000000000000000e+00,1.014597243394588e-04,0.000000000000000e+00,0.000000000000000e+00,9.508996000182414e-07,1.278000000000000e-09,4.680000000000000e+03,6.000000000000000e-01,1,1.400000043213367e-02,1.400000043213367e-02,0.000000000000000e+00,0.000000000000000e+00
1.258830000428445e-01,5.201500000652117e+02,1.194313899761032e-01,-1.150800527944456e-05,1.190530714812437e-01,2.046816820805205e-03,7.266664052469651e-03,-1.424800653645636e-06,7.243244336124648e-03,0.000000000000000e+00,0.000000000000000e+00,0.000000000000000e+00,9.999999999998001e+01,4.886544893536980e-14,0.000000000000000e+00,1.087068417213551e-04,0.000000000000000e+00,0.000000000000000e+00,9.509409999864957e-07,1.278000000000000e-09,4.680000000000000e+03,6.000000000000000e-01,1,1.499999966472387e-02,1.499999966472387e-02,0.000000000000000e+00,0.000000000000000e+00
1.257551999028731e-01,5.199499998460417e+02,1.193155325147094e-01,-1.376378083026174e-05,1.190512260821375e-01,2.068450713251751e-03,7.258152682946240e-03,-1.704087150413454e-06,7.241790856171368e-03,0.000000000000000e+00,0.000000000000000e+00,0.000000000000000e+00,9.999999999997999e+01,5.212314917182086e-14,0.000000000000000e+00,1.159539726020698e-04,0.000000000000000e+00,0.000000000000000e+00,9.509824000318636e-07,1.278000000000000e-09,4.680000000000000e+03,6.000000000000000e-01,1,1.600000075995922e-02,1.600000075995922e-02,0.000000000000000e+00,0.000000000000000e+00
1.256273998819248e-01,5.197499998131362e+02,1.191996751612162e-01,-1.601955428022652e-05,1.190493806847500e-01,2.090084585550186e-03,7.249641321349653e-03,-1.983373387075736e-06,7.240337377571748e-03,0.000000000000000e+00,0.000000000000000e+00,0.000000000000000e+00,9.999999999998001e+01,5.538084637430547e-14,0.000000000000000e+00,1.232010967333753e-04,0.000000000000000e+00,0.000000000000000e+00,9.510238000386747e-07,1.278000000000000e-09,4.680000000000000e+03,6.000000000000000e-01,1,1.700000092387199e-02,1.700000092387199e-02,0.000000000000000e+00,0.000000000000000e+00
1.254996000990226e-01,5.195500001527599e+02,1.190838180235241e-01,-1.827532352848652e-05,1.190475352907999e-01,2.111718417552401e-03,7.241129975606709e-03,-2.262659103526950e-06,7.238883901679440e-03,0.000000000000000e+00,0.000000000000000e+00,0.000000000000000e+00,9.999999999998002e+01,5.863853750885718e-14,0.000000000000000e+00,1.304482073658625e-04,0.000000000000000e+00,0.000000000000000e+00,9.510651999683723e-07,1.278000000000000e-09,4.680000000000000e+03,6.000000000000001e-01,1,1.799999922513962e-02,1.799999922513962e-02,0.000000000000000e+00,0.000000000000000e+00
1.253718000780742e-01,5.193500001198545e+02,1.189679606700309e-01,-2.053109697845129e-05,1.190456898934124e-01,2.133352289850837e-03,7.232618614010122e-03,-2.541945340189233e-06,7.237430423079819e-03,0.000000000000000e+00,0.000000000000000e+00,0.000000000000000e+00,9.999999999998002e+01,6.189623471134179e-14,0.000000000000000e+00,1.376953314971679e-04,0.000000000000000e+00,0.000000000000000e+00,9.511065999751833e-07,1.278000000000000e-09,4.680000000000000e+03,6.000000000000001e-01,1,1.899999938905239e-02,1.899999938905239e-02,0.000000000000000e+00,0.000000000000000e+00
1.252440000571259e-01,5.191500000869489e+02,1.188521033165376e-01,-2.278687042841608e-05,1.190438444960249e-01,2.154986162149273e-03,7.224107252413533e-03,-2.821231576851515e-06,7.235976944480197e-03,0.000000000000000e+00,0.000000000000000e+00,0.000000000000000e+00,9.999999999998001e+01,6.515393191382640e-14,0.000000000000000e+00,1.449424556284735e-04,0.000000000000000e+00,0.000000000000000e+00,9.511479999819943e-07,1.278000000000000e-09,4.680000000000000e+03,6.000000000000000e-01,1,1.999999955296516e-02,1.999999955296516e-02,0.000000000000000e+00,0.000000000000000e+00
1.251162000361776e-01,5.189500000540435e+02,1.187362459630444e-01,-2.504264387838087e-05,1.190419990986374e-01,2.176620034447708e-03,7.215595890816946e-03,-3.100517813513798e-06,7.234523465880575e-03,0.000000000000000e+00,0.000000000000000e+00,0.000000000000000e+00,9.999999999998001e+01,6.841162911631103e-14,0.000000000000000e+00,1.521895797597790e-04,0.000000000000000e+00,0.000000000000000e+00,9.511893999888055e-07,1.278000000000000e-09,4.680000000000000e+03,6.000000000000000e-01,1,2.099999971687794e-02,2.099999971687794e-02,0.000000000000000e+00,0.000000000000000e+00
1.249884000152293e-01,5.187500000211380e+02,1.186203886095512e-01,-2.729841732834564e-05,1.190401537012499e-01,2.198253906746144e-03,7.207084529220358e-03,-3.379804050176080e-06,7.233069987280954e-03,0.000000000000000e+00,0.000000000000000e+00,0.000000000000000e+00,9.999999999998001e+01,7.166932631879561e-14,0.000000000000000e+00,1.594367038910845e-04,0.000000000000000e+00,0.000000000000000e+00,9.512307999956164e-07,1.278000000000000e-09,4.680000000000000e+03,6.000000000000000e-01,1,2.199999988079071e-02,2.199999988079071e-02,0.000000000000000e+00,0.000000000000000e+00
1.248605999942810e-01,5.185499999882326e+02,1.185045312560579e-01,-2.955419077831043e-05,1.190383083038624e-01,2.219887779044580e-03,7.198573167623771e-03,-3.659090286838364e-06,7.231616508681333e-03,0.000000000000000e+00,0.000000000000000e+00,0.000000000000000e+00,9.999999999998001e+01,7.492702352128023e-14,0.000000000000000e+00,1.666838280223900e-04,0.000000000000000e+00,0.000000000000000e+00,9.512722000024277e-07,1.278000000000000e-09,4.680000000000000e+03,6.000000000000000e-01,1,2.300000004470348e-02,2.300000004470348e-02,0.000000000000000e+00,0.000000000000000e+00
1.247327999733327e-01,5.183499999553271e+02,1.183886739025647e-01,-3.180996422827521e-05,1.190364629064749e-01,2.241521651343015e-03,7.190061806027184e-03,-3.938376523500645e-06,7.230163030081711e-03,0.000000000000000e+00,0.000000000000000e+00,0.000000000000000e+00,9.999999999998001e+01,7.818472072376484e-14,0.000000000000000e+00,1.739309521536955e-04,0.000000000000000e+00,0.000000000000000e+00,9.513136000092387e-07,1.278000000000000e-09,4.680000000000000e+03,6.000000000000000e-01,1,2.400000020861626e-02,2.400000020861626e-02,0.000000000000000e+00,0.000000000000000e+00
1.246049999523844e-01,5.181499999224217e+02,1.182728165490715e-01,-3.406573767824000e-05,1.190346175090874e-01,2.263155523641451e-03,7.181550444430595e-03,-4.217662760162928e-06,7.228709551482089e-03,0.000000000000000e+00,0.000000000000000e+00,0.000000000000000e+00,9.999999999998001e+01,8.144241792624946e-14,0.000000000000000e+00,1.811780762850010e-04,0.000000000000000e+00,0.000000000000000e+00,9.513550000160497e-07,1.278000000000000e-09,4.680000000000000e+03,6.000000000000000e-01,1,2.500000037252903e-02,2.500000037252903e-02,0.000000000000000e+00,0.000000000000000e+00
1.244771999314361e-01,5.179499998895162e+02,1.181569591955783e-01,-3.632151112820478e-05,1.190327721117000e-01,2.284789395939887e-03,7.173039082834008e-03,-4.496948996825210e-06,7.227256072882467e-03,0.000000000000000e+00,0.000000000000000e+00,0.000000000000000e+00,9.999999999998001e+01,8.470011512873407e-14,0.000000000000000e+00,1.884252004163066e-04,0.000000000000000e+00,0.000000000000000e+00,9.513964000228608e-07,1.278000000000000e-09,4.680000000000000e+03,6.000000000000000e-01,1,2.600000053644180e-02,2.600000053644180e-02,0.000000000000000e+00,0.000000000000000e+00
1.243493999104878e-01,5.177499998566108e+02,1.180411018420850e-01,-3.857728457816956e-05,1.190309267143125e-01,2.306423268238322e-03,7.164527721237420e-03,-4.776235233487493e-06,7.225802594282846e-03,0.000000000000000e+00,0.000000000000000e+00,0.000000000000000e+00,9.999999999997999e+01,8.795781233121866e-14,0.000000000000000e+00,1.956723245476120e-04,0.000000000000000e+00,0.000000000000000e+00,9.514378000296718e-07,1.278000000000000e-09,4.680000000000000e+03,6.000000000000000e-01,1,2.700000070035458e-02,2.700000070035458e-02,0.000000000000000e+00,0.000000000000000e+00
1.242215998895395e-01,5.175499998237053e+02,1.179252444885918e-01,-4.083305802813435e-05,1.190290813169250e-01,2.328057140536758e-03,7.156016359640832e-03,-5.055521470149776e-06,7.224349115683225e-03,0.000000000000000e+00,0.000000000000000e+00,0.000000000000000e+00,9.999999999998001e+01,9.121550953370329e-14,0.000000000000000e+00,2.029194486789176e-04,0.000000000000000e+00,0.000000000000000e+00,9.514792000364830e-07,1.278000000000000e-09,4.680000000000000e+03,6.000000000000000e-01,1,2.800000086426735e-02,2.800000086426735e-02,0.000000000000000e+00,0.000000000000000e+00
1.240938001066372e-01,5.173500001633289e+02,1.178093873508997e-01,-4.308882727639434e-05,1.190272359229748e-01,2.349690972538973e-03,7.147505013897888e-03,-5.334807186600990e-06,7.222895639790918e-03,0.000000000000000e+00,0.000000000000000e+00,0.000000000000000e+00,9.999999999998001e+01,9.447320066825500e-14,0.000000000000000e+00,2.101665593114047e-04,0.000000000000000e+00,0.000000000000000e+00,9.515205999661806e-07,1.278000000000000e-09,4.680000000000000e+03,6.000000000000000e-01,1,2.899999916553497e-02,2.899999916553497e-02,0.000000000000000e+00,0.000000000000000e+00
1.239660000856889e-01,5.171500001304235e+02,1.176935299974065e-01,-4.534460072635912e-05,1.190253905255873e-01,2.371324844837409e-03,7.138993652301300e-03,-5.614093423263272e-06,7.221442161191295e-03,0.000000000000000e+00,0.000000000000000e+00,0.000000000000000e+00,9.999999999997999e+01,9.773089787073961e-14,0.000000000000000e+00,2.174136834427102e-04,0.000000000000000e+00,0.000000000000000e+00,9.515619999729915e-07,1.278000000000000e-09,4.680000000000000e+03,6.000000000000000e-01,1,2.999999932944775e-02,2.999999932944775e-02,0.000000000000000e+00,0.000000000000000e+00
1.238382000647406e-01,5.169500000975180e+02,1.175776726439132e-01,-4.760037417632391e-05,1.190235451281998e-01,2.392958717135844e-03,7.130482290704713e-03,-5.893379659925556e-06,7.219988682591674e-03,0.000000000000000e+00,0.000000000000000e+00,0.000000000000000e+00,9.999999999998002e+01,1.009885950732242e-13,0.000000000000000e+00,2.246608075740157e-04,0.000000000000000e+00,0.000000000000000e+00,9.516033999798027e-07,1.278000000000000e-09,4.680000000000000e+03,6.000000000000000e-01,1,3.099999949336052e-02,3.099999949336052e-02,0.000000000000000e+00,0.000000000000000e+00
1.237103998057462e-01,5.167499996920835e+02,1.174618150746189e-01,-4.985615182799347e-05,1.190216997273750e-01,2.414592629730501e-03,7.121970913254482e-03,-6.172666416798907e-06,7.218535201284738e-03,0.000000000000000e+00,0.000000000000000e+00,0.000000000000000e+00,9.999999999998001e+01,1.042462983436417e-13,0.000000000000000e+00,2.319079452041396e-04,0.000000000000000e+00,0.000000000000000e+00,9.516448000637273e-07,1.278000000000000e-09,4.680000000000000e+03,6.000000000000000e-01,1,3.200000151991844e-02,3.200000151991844e-02,0.000000000000000e+00,0.000000000000000e+00
1.235826000228440e-01,5.165500000317070e+02,1.173459579369268e-01,-5.211192107625347e-05,1.190198543334249e-01,2.436226461732716e-03,7.113459567511538e-03,-6.451952133250121e-06,7.217081725392431e-03,0.000000000000000e+00,0.000000000000000e+00,0.000000000000000e+00,9.999999999998001e+01,1.075039894781934e-13,0.000000000000000e+00,2.391550558366268e-04,0.000000000000000e+00,0.000000000000000e+00,9.516861999934247e-07,1.278000000000000e-09,4.680000000000000e+03,6.000000000000000e-01,1,3.299999982118607e-02,3.299999982118607e-02,0.000000000000000e+00,0.000000000000000e+00
1.234547997638496e-01,5.163499996262726e+02,1.172301003676324e-01,-5.436769872792304e-05,1.190180089326001e-01,2.457860374327372e-03,7.104948190061306e-03,-6.731238890123472e-06,7.215628244085495e-03,0.000000000000000e+00,0.000000000000000e+00,0.000000000000000e+00,9.999999999998002e+01,1.107616927486109e-13,0.000000000000000e+00,2.464021934667507e-04,0.000000000000000e+00,0.000000000000000e+00,9.517276000773493e-07,1.278000000000000e-09,4.680000000000000e+03,6.000000000000000e-01,1,3.400000184774399e-02,3.400000184774399e-02,0.000000000000000e+00,0.000000000000000e+00
1.233269999809474e-01,5.161499999658961e+02,1.171142432299403e-01,-5.662346797618304e-05,1.190161635386499e-01,2.479494206329587e-03,7.096436844318362e-03,-7.010524606574685e-06,7.214174768193188e-03,0.000000000000000e+00,0.000000000000000e+00,0.000000000000000e+00,9.999999999998001e+01,1.140193838831626e-13,0.000000000000000e+00,2.536493040992378e-04,0.000000000000000e+00,0.000000000000000e+00,9.517690000070469e-07,1.278000000000000e-09,4.680000000000000e+03,6.000000000000000e-01,1,3.500000014901161e-02,3.500000014901161e-02,0.000000000000000e+00,0.000000000000000e+00
1.231992001980451e-01,5.159500003055198e+02,1.169983860922482e-01,-5.887923722444303e-05,1.190143181446997e-01,2.501128038331802e-03,7.087925498575418e-03,-7.289810323025900e-06,7.212721292300881e-03,0.000000000000000e+00,0.000000000000000e+00,0.000000000000000e+00,9.999999999998001e+01,1.172770750177144e-13,0.000000000000000e+00,2.608964147317249e-04,0.000000000000000e+00,0.000000000000000e+00,9.518103999367445e-07,1.278000000000000e-09,4.680000000000000e+03,6.000000000000000e-01,1,3.599999845027924e-02,3.599999845027924e-02,0.000000000000000e+00,0.000000000000000e+00
1.230713999390508e-01,5.157499999000852e+02,1.168825285229538e-01,-6.113501487611261e-05,1.190124727438749e-01,2.522761950926458e-03,7.079414121125187e-03,-7.569097079899251e-06,7.211267810993944e-03,0.000000000000000e+00,0.000000000000000e+00,0.000000000000000e+00,9.999999999997999e+01,1.205347782881319e-13,0.000000000000000e+00,2.681435523618488e-04,0.000000000000000e+00,0.000000000000000e+00,9.518518000206691e-07,1.278000000000000e-09,4.680000000000000e+03,6.000000000000000e-01,1,3.700000047683716e-02,3.700000047683716e-02,0.000000000000000e+00,0.000000000000000e+00
1.229436001561485e-01,5.155500002397088e+02,1.167666713852617e-01,-6.339078412437260e-05,1.190106273499247e-01,2.544395782928673e-03,7.070902775382243e-03,-7.848382796350465e-06,7.209814335101638e-03,0.000000000000000e+00,0.000000000000000e+00,0.000000000000000e+00,9.999999999998001e+01,1.237924694226836e-13,0.000000000000000e+00,2.753906629943359e-04,0.000000000000000e+00,0.000000000000000e+00,9.518931999503667e-07,1.278000000000000e-09,4.680000000000000e+03,6.000000000000000e-01,1,3.799999877810478e-02,3.799999877810478e-02,0.000000000000000e+00,0.000000000000000e+00
1.228157998971541e-01,5.153499998342743e+02,1.166508138159674e-01,-6.564656177604216e-05,1.190087819490999e-01,2.566029695523330e-03,7.062391397932011e-03,-8.127669553223817e-06,7.208360853794702e-03,0.000000000000000e+00,0.000000000000000e+00,0.000000000000000e+00,9.999999999998001e+01,1.270501726931011e-13,0.000000000000000e+00,2.826378006244598e-04,0.000000000000000e+00,0.000000000000000e+00,9.519346000342912e-07,1.278000000000000e-09,4.680000000000000e+03,6.000000000000000e-01,1,3.900000080466270e-02,3.900000080466270e-02,0.000000000000000e+00,0.000000000000000e+00
1.226880001142519e-01,5.151500001738979e+02,1.165349566782753e-01,-6.790233102430215e-05,1.190069365551498e-01,2.587663527525545e-03,7.053880052189068e-03,-8.406955269675031e-06,7.206907377902395e-03,0.000000000000000e+00,0.000000000000000e+00,0.000000000000000e+00,9.999999999998001e+01,1.303078638276528e-13,0.000000000000000e+00,2.898849112569469e-04,0.000000000000000e+00,0.000000000000000e+00,9.519759999639887e-07,1.278000000000000e-09,4.680000000000000e+03,6.000000000000000e-01,1,3.999999910593033e-02,3.999999910593033e-02,0.000000000000000e+00,0.000000000000000e+00
1.225601998552576e-01,5.149499997684635e+02,1.164267144446559e-01,-6.876762513050675e-05,1.189524838042285e-01,2.598243343402546e-03,7.046524401505979e-03,-8.514086920919325e-06,7.202881552338627e-03,0.000000000000000e+00,0.000000000000000e+00,0.000000000000000e+00,9.999999999998001e+01,1.328416336851677e-13,0.000000000000000e+00,2.968084625994153e-04,0.000000000000000e+00,0.000000000000000e+00,9.520174000479133e-07,1.278000000000000e-09,4.680000000000000e+03,6.000000000000000e-01,1,4.100000113248825e-02,4.100000113248825e-02,0.000000000000000e+00,0.000000000000000e+00
1.224324000723553e-01,5.147500001080871e+02,1.163184726210774e-01,-6.963291477017424e-05,1.188980312091290e-01,2.608823109984542e-03,7.039168779257971e-03,-8.621218019163787e-06,7.198855739472560e-03,0.000000000000000e+00,0.000000000000000e+00,0.000000000000000e+00,9.999999999998001e+01,1.353753934564875e-13,0.000000000000000e+00,3.037319878604160e-04,0.000000000000000e+00,0.000000000000000e+00,9.520587999776109e-07,1.278000000000000e-09,4.680000000000000e+03,6.000000000000000e-01,1,4.199999943375587e-02,4.199999943375587e-02,0.000000000000000e+00,0.000000000000000e+00
1.223045998133610e-01,5.145499997026526e+02,1.162102303942660e-01,-7.049820763330232e-05,1.188435784111774e-01,2.619402915979307e-03,7.031813129608088e-03,-8.728349516503369e-06,7.194829911609147e-03,0.000000000000000e+00,0.000000000000000e+00,0.000000000000000e+00,9.999999999998001e+01,1.379091626668141e-13,0.000000000000000e+00,3.106555389136019e-04,0.000000000000000e+00,0.000000000000000e+00,9.521002000615354e-07,1.278000000000000e-09,4.680000000000001e+03,6.000000000000000e-01,1,4.300000146031380e-02,4.300000146031380e-02,0.000000000000000e+00,0.000000000000000e+00
1.221768000304588e-01,5.143500000422763e+02,1.161019885706875e-01,-7.136349727296981e-05,1.187891258160778e-01,2.629982682561303e-03,7.024457507360080e-03,-8.835480614747833e-06,7.190804098743080e-03,0.000000000000000e+00,0.000000000000000e+00,0.000000000000000e+00,9.999999999998001e+01,1.404429224381340e-13,0.000000000000000e+00,3.175790641746026e-04,0.000000000000000e+00,0.000000000000000e+00,9.521415999912330e-07,1.278000000000000e-09,4.680000000000000e+03,6.000000000000000e-01,1,4.399999976158142e-02,4.399999976158142e-02,0.000000000000000e+00,0.000000000000000e+00
1.220489997714645e-01,5.141499996368419e+02,1.159937463438761e-01,-7.222879013609788e-05,1.187346730181262e-01,2.640562488556068e-03,7.017101857710198e-03,-8.942612112087415e-06,7.186778270879666e-03,0.000000000000000e+00,0.000000000000000e+00,0.000000000000000e+00,9.999999999998001e+01,1.429766916484606e-13,0.000000000000000e+00,3.245026152277884e-04,0.000000000000000e+00,0.000000000000000e+00,9.521830000751576e-07,1.278000000000000e-09,4.680000000000000e+03,6.000000000000000e-01,1,4.500000178813934e-02,4.500000178813934e-02,0.000000000000000e+00,0.000000000000000e+00
1.219211999885622e-01,5.139499999764655e+02,1.158855045202976e-01,-7.309407977576537e-05,1.186802204230266e-01,2.651142255138064e-03,7.009746235462189e-03,-9.049743210331879e-06,7.182752458013599e-03,0.000000000000000e+00,0.000000000000000e+00,0.000000000000000e+00,9.999999999998002e+01,1.455104514197805e-13,0.000000000000000e+00,3.314261404887890e-04,0.000000000000000e+00,0.000000000000000e+00,9.522244000048552e-07,1.278000000000000e-09,4.680000000000000e+03,6.000000000000000e-01,1,4.600000008940697e-02,4.600000008940697e-02,0.000000000000000e+00,0.000000000000000e+00
1.217934002056600e-01,5.137500003160891e+02,1.157772626967191e-01,-7.395936941543286e-05,1.186257678279271e-01,2.661722021720060e-03,7.002390613214182e-03,-9.156874308576341e-06,7.178726645147532e-03,0.000000000000000e+00,0.000000000000000e+00,0.000000000000000e+00,9.999999999998001e+01,1.480442111911003e-13,0.000000000000000e+00,3.383496657497897e-04,0.000000000000000e+00,0.000000000000000e+00,9.522657999345527e-07,1.278000000000000e-09,4.680000000000000e+03,6.000000000000000e-01,1,4.699999839067459e-02,4.699999839067459e-02,0.000000000000000e+00,0.000000000000000e+00
1.216655999466657e-01,5.135499999106547e+02,1.156690204699077e-01,-7.482466227856093e-05,1.185713150299754e-01,2.672301827714825e-03,6.995034963564299e-03,-9.264005805915925e-06,7.174700817284120e-03,0.000000000000000e+00,0.000000000000000e+00,0.000000000000000e+00,9.999999999998001e+01,1.505779804014269e-13,0.000000000000000e+00,3.452732168029756e-04,0.000000000000000e+00,0.000000000000000e+00,9.523072000184773e-07,1.278000000000000e-09,4.680000000000000e+03,6.000000000000000e-01,1,4.800000041723251e-02,4.800000041723251e-02,0.000000000000000e+00,0.000000000000000e+00
1.215378001637635e-01,5.133500002502783e+02,1.155607786463293e-01,-7.568995191822842e-05,1.185168624348759e-01,2.682881594296821e-03,6.987679341316291e-03,-9.371136904160387e-06,7.170675004418052e-03,0.000000000000000e+00,0.000000000000000e+00,0.000000000000000e+00,9.999999999998002e+01,1.531117401727468e-13,0.000000000000000e+00,3.521967420639762e-04,0.000000000000000e+00,0.000000000000000e+00,9.523485999481749e-07,1.278000000000000e-09,4.680000000000000e+03,6.000000000000000e-01,1,4.899999871850014e-02,4.899999871850014e-02,0.000000000000000e+00,0.000000000000000e+00
1.214099999047691e-01,5.131499998448439e+02,1.154525364195179e-01,-7.655524478135649e-05,1.184624096369243e-01,2.693461400291585e-03,6.980323691666408e-03,-9.478268401499969e-06,7.166649176554639e-03,0.000000000000000e+00,0.000000000000000e+00,0.000000000000000e+00,9.999999999998001e+01,1.556455093830734e-13,0.000000000000000e+00,3.591202931171622e-04,0.000000000000000e+00,0.000000000000000e+00,9.523900000320994e-07,1.278000000000000e-09,4.680000000000000e+03,6.000000000000001e-01,1,5.000000074505806e-02,5.000000074505806e-02,0.000000000000000e+00,0.000000000000000e+00
1.212822001218669e-01,5.129500001844675e+02,1.153442945959394e-01,-7.742053442102398e-05,1.184079570418247e-01,2.704041166873581e-03,6.972968069418400e-03,-9.585399499744433e-06,7.162623363688571e-03,0.000000000000000e+00,0.000000000000000e+00,0.000000000000000e+00,9.999999999998002e+01,1.581792691543932e-13,0.000000000000000e+00,3.660438183781627e-04,0.000000000000000e+00,0.000000000000000e+00,9.524313999617970e-07,1.278000000000000e-09,4.680000000000000e+03,6.000000000000000e-01,1,5.099999904632568e-02,5.099999904632568e-02,0.000000000000000e+00,0.000000000000000e+00
1.211543998628726e-01,5.127499997790330e+02,1.152360523691280e-01,-7.828582728415204e-05,1.183535042438731e-01,2.714620972868346e-03,6.965612419768516e-03,-9.692530997084015e-06,7.158597535825158e-03,0.000000000000000e+00,0.000000000000000e+00,0.000000000000000e+00,9.999999999998001e+01,1.607130383647199e-13,0.000000000000000e+00,3.729673694313487e-04,0.000000000000000e+00,0.000000000000000e+00,9.524728000457216e-07,1.278000000000000e-09,4.680000000000000e+03,6.000000000000000e-01,1,5.200000107288361e-02,5.200000107288361e-02,0.000000000000000e+00,0.000000000000000e+00
1.210266000799703e-01,5.125500001186567e+02,1.151278105455495e-01,-7.915111692381953e-05,1.182990516487736e-01,2.725200739450342e-03,6.958256797520509e-03,-9.799662095328479e-06,7.154571722959090e-03,0.000000000000000e+00,0.000000000000000e+00,0.000000000000000e+00,9.999999999997999e+01,1.632467981360397e-13,0.000000000000000e+00,3.798908946923493e-04,0.000000000000000e+00,0.000000000000000e+00,9.525141999754191e-07,1.278000000000000e-09,4.680000000000000e+03,6.000000000000000e-01,1,5.299999937415123e-02,5.299999937415123e-02,0.000000000000000e+00,0.000000000000000e+00
1.208987998209760e-01,5.123499997132222e+02,1.150195683187381e-01,-8.001640978694759e-05,1.182445988508219e-01,2.735780545445107e-03,6.950901147870626e-03,-9.906793592668061e-06,7.150545895095677e-03,0.000000000000000e+00,0.000000000000000e+00,0.000000000000000e+00,9.999999999998001e+01,1.657805673463663e-13,0.000000000000000e+00,3.868144457455352e-04,0.000000000000000e+00,0.000000000000000e+00,9.525556000593436e-07,1.278000000000000e-09,4.680000000000000e+03,6.000000000000000e-01,1,5.400000140070915e-02,5.400000140070915e-02,0.000000000000000e+00,0.000000000000000e+00
1.207710000380738e-01,5.121500000528458e+02,1.149113264951596e-01,-8.088169942661508e-05,1.181901462557224e-01,2.746360312027103e-03,6.943545525622619e-03,-1.001392469091252e-05,7.146520082229610e-03,0.000000000000000e+00,0.000000000000000e+00,0.000000000000000e+00,9.999999999998001e+01,1.683143271176862e-13,0.000000000000000e+00,3.937379710065358e-04,0.000000000000000e+00,0.000000000000000e+00,9.525969999890412e-07,1.278000000000000e-09,4.680000000000000e+03,6.000000000000000e-01,1,5.499999970197678e-02,5.499999970197678e-02,0.000000000000000e+00,0.000000000000000e+00
1.206431997790795e-01,5.119499996474115e+02,1.148030842683482e-01,-8.174699228974316e-05,1.181356934577708e-01,2.756940118021868e-03,6.936189875972735e-03,-1.012105618825211e-05,7.142494254366196e-03,0.000000000000000e+00,0.000000000000000e+00,0.000000000000000e+00,9.999999999998001e+01,1.708480963280127e-13,0.000000000000000e+00,4.006615220597218e-04,0.000000000000000e+00,0.000000000000000e+00,9.526384000729657e-07,1.278000000000000e-09,4.680000000000000e+03,6.000000000000000e-01,1,5.600000172853470e-02,5.600000172853470e-02,0.000000000000000e+00,0.000000000000000e+00
1.205153999961772e-01,5.117499999870350e+02,1.146948424447698e-01,-8.261228192941065e-05,1.180812408626712e-01,2.767519884603863e-03,6.928834253724727e-03,-1.022818728649657e-05,7.138468441500129e-03,0.000000000000000e+00,0.000000000000000e+00,0.000000000000000e+00,9.999999999997999e+01,1.733818560993326e-13,0.000000000000000e+00,4.075850473207223e-04,0.000000000000000e+00,0.000000000000000e+00,9.526798000026633e-07,1.278000000000000e-09,4.680000000000000e+03,6.000000000000000e-01,1,5.700000002980232e-02,5.700000002980232e-02,0.000000000000000e+00,0.000000000000000e+00
1.203876002132750e-01,5.115500003266587e+02,1.145866006211913e-01,-8.347757156907815e-05,1.180267882675717e-01,2.778099651185860e-03,6.921478631476720e-03,-1.033531838474103e-05,7.134442628634063e-03,0.000000000000000e+00,0.000000000000000e+00,0.000000000000000e+00,9.999999999998001e+01,1.759156158706525e-13,0.000000000000000e+00,4.145085725817230e-04,0.000000000000000e+00,0.000000000000000e+00,9.527211999323609e-07,1.278000000000000e-09,4.680000000000000e+03,6.000000000000000e-01,1,5.799999833106995e-02,5.799999833106995e-02,0.000000000000000e+00,0.000000000000000e+00
1.202597999542807e-01,5.113499999212243e+02,1.144783583943799e-01,-8.434286443220621e-05,1.179723354696200e-01,2.788679457180624e-03,6.914122981826837e-03,-1.044244988208061e-05,7.130416800770648e-03,0.000000000000000e+00,0.000000000000000e+00,0.000000000000000e+00,9.999999999998001e+01,1.784493850809791e-13,0.000000000000000e+00,4.214321236349089e-04,0.000000000000000e+00,0.000000000000000e+00,9.527626000162855e-07,1.278000000000000e-09,4.680000000000000e+03,6.000000000000000e-01,1,5.900000035762787e-02,5.900000035762787e-02,0.000000000000000e+00,0.000000000000000e+00
1.201320001713785e-01,5.111500002608478e+02,1.143701165708014e-01,-8.520815407187370e-05,1.179178828745205e-01,2.799259223762620e-03,6.906767359578829e-03,-1.054958098032508e-05,7.126390987904582e-03,0.000000000000000e+00,0.000000000000000e+00,0.000000000000000e+00,9.999999999998001e+01,1.809831448522989e-13,0.000000000000000e+00,4.283556488959095e-04,0.000000000000000e+00,0.000000000000000e+00,9.528039999459829e-07,1.278000000000000e-09,4.680000000000000e+03,6.000000000000000e-01,1,5.999999865889549e-02,5.999999865889549e-02,0.000000000000000e+00,0.000000000000000e+00
1.200041999123841e-01,5.109499998554135e+02,1.142618743439900e-01,-8.607344693500177e-05,1.178634300765689e-01,2.809839029757385e-03,6.899411709928947e-03,-1.065671247766466e-05,7.122365160041168e-03,0.000000000000000e+00,0.000000000000000e+00,0.000000000000000e+00,9.999999999998001e+01,1.835169140626255e-13,0.000000000000000e+00,4.352791999490954e-04,0.000000000000000e+00,0.000000000000000e+00,9.528454000299076e-07,1.278000000000000e-09,4.680000000000000e+03,6.000000000000000e-01,1,6.100000068545341e-02,6.100000068545341e-02,0.000000000000000e+00,0.000000000000000e+00
1.198764001294819e-01,5.107500001950370e+02,1.141536325204115e-01,-8.693873657466926e-05,1.178089774814693e-01,2.820418796339381e-03,6.892056087680938e-03,-1.076384357590912e-05,7.118339347175101e-03,0.000000000000000e+00,0.000000000000000e+00,0.000000000000000e+00,9.999999999998001e+01,1.860506738339454e-13,0.000000000000000e+00,4.422027252100960e-04,0.000000000000000e+00,0.000000000000000e+00,9.528867999596052e-07,1.278000000000000e-09,4.680000000000000e+03,6.000000000000000e-01,1,6.199999898672104e-02,6.199999898672104e-02,0.000000000000000e+00,0.000000000000000e+00
1.197485998704876e-01,5.105499997896026e+02,1.140453902936001e-01,-8.780402943779733e-05,1.177545246835177e-01,2.830998602334146e-03,6.884700438031056e-03,-1.087097507324870e-05,7.114313519311688e-03,0.000000000000000e+00,0.000000000000000e+00,0.000000000000000e+00,9.999999999998001e+01,1.885844430442720e-13,0.000000000000000e+00,4.491262762632819e-04,0.000000000000000e+00,0.000000000000000e+00,9.529282000435297e-07,1.278000000000000e-09,4.680000000000000e+03,6.000000000000000e-01,1,6.300000101327896e-02,6.300000101327896e-02,0.000000000000000e+00,0.000000000000000e+00
1.196207996114933e-01,5.103499993841682e+02,1.139371480667887e-01,-8.866932230092540e-05,1.177000718855661e-01,2.841578408328910e-03,6.877344788381173e-03,-1.097810657058829e-05,7.110287691448273e-03,0.000000000000000e+00,0.000000000000000e+00,0.000000000000000e+00,9.999999999998001e+01,1.911182122545986e-13,0.000000000000000e+00,4.560498273164679e-04,0.000000000000000e+00,0.000000000000000e+00,9.529696001274543e-07,1.278000000000000e-09,4.680000000000000e+03,6.000000000000000e-01,1,6.400000303983688e-02,6.400000303983688e-02,0.000000000000000e+00,0.000000000000000e+00
1.194930003046831e-01,5.101500004688500e+02,1.138289066464432e-01,-8.953460871713232e-05,1.176456194933186e-01,2.852158135498137e-03,6.869989193535040e-03,-1.108523726973763e-05,7.106261893579554e-03,0.000000000000000e+00,0.000000000000000e+00,0.000000000000000e+00,9.999999999998001e+01,1.936519625869117e-13,0.000000000000000e+00,4.629733267852832e-04,0.000000000000000e+00,0.000000000000000e+00,9.530109999029247e-07,1.278000000000000e-09,4.680000000000000e+03,6.000000000000000e-01,1,6.499999761581421e-02,6.499999761581421e-02,0.000000000000000e+00,0.000000000000000e+00
1.193652000456888e-01,5.099500000634155e+02,1.137206644196318e-01,-9.039990158026039e-05,1.175911666953670e-01,2.862737941492902e-03,6.862633543885156e-03,-1.119236876707721e-05,7.102236065716140e-03,0.000000000000000e+00,0.000000000000000e+00,0.000000000000000e+00,9.999999999998002e+01,1.961857317972383e-13,0.000000000000000e+00,4.698968778384692e-04,0.000000000000000e+00,0.000000000000000e+00,9.530523999868493e-07,1.278000000000000e-09,4.680000000000000e+03,6.000000000000000e-01,1,6.599999964237213e-02,6.599999964237213e-02,0.000000000000000e+00,0.000000000000000e+00
1.192373997866945e-01,5.097499996579810e+02,1.136124221928204e-01,-9.126519444338845e-05,1.175367138974153e-01,2.873317747487667e-03,6.855277894235274e-03,-1.129950026441680e-05,7.098210237852726e-03,0.000000000000000e+00,0.000000000000000e+00,0.000000000000000e+00,9.999999999998001e+01,1.987195010075649e-13,0.000000000000000e+00,4.768204288916550e-04,0.000000000000000e+00,0.000000000000000e+00,9.530938000707738e-07,1.278000000000000e-09,4.680000000000000e+03,6.000000000000000e-01,1,6.700000166893005e-02,6.700000166893005e-02,0.000000000000000e+00,0.000000000000000e+00
1.191095995277001e-01,5.095499992525466e+02,1.135041799660090e-01,-9.213048730651651e-05,1.174822610994637e-01,2.883897553482432e-03,6.847922244585391e-03,-1.140663176175638e-05,7.094184409989313e-03,0.000000000000000e+00,0.000000000000000e+00,0.000000000000000e+00,9.999999999998001e+01,2.012532702178915e-13,0.000000000000000e+00,4.837439799448410e-04,0.000000000000000e+00,0.000000000000000e+00,9.531352001546985e-07,1.278000000000000e-09,4.680000000000000e+03,6.000000000000000e-01,1,6.800000369548798e-02,6.800000369548798e-02,0.000000000000000e+00,0.000000000000000e+00
1.189818002208900e-01,5.093500003372283e+02,1.133959385456634e-01,-9.299577372272344e-05,1.174278087072162e-01,2.894477280651659e-03,6.840566649739258e-03,-1.151376246090572e-05,7.090158612120593e-03,0.000000000000000e+00,0.000000000000000e+00,0.000000000000000e+00,9.999999999997999e+01,2.037870205502047e-13,0.000000000000000e+00,4.906674794136563e-04,0.000000000000000e+00,0.000000000000000e+00,9.531765999301690e-07,1.278000000000000e-09,4.680000000000000e+03,6.000000000000000e-01,1,6.899999827146530e-02,6.899999827146530e-02,0.000000000000000e+00,0.000000000000000e+00
1.188539999618957e-01,5.091499999317938e+02,1.132876963188520e-01,-9.386106658585151e-05,1.173733559092646e-01,2.905057086646423e-03,6.833211000089375e-03,-1.162089395824530e-05,7.086132784257178e-03,0.000000000000000e+00,0.000000000000000e+00,0.000000000000000e+00,9.999999999998001e+01,2.063207897605313e-13,0.000000000000000e+00,4.975910304668422e-04,0.000000000000000e+00,0.000000000000000e+00,9.532180000140936e-07,1.278000000000000e-09,4.680000000000000e+03,6.000000000000000e-01,1,7.000000029802322e-02,7.000000029802322e-02,0.000000000000000e+00,0.000000000000000e+00
1.187261997029014e-01,5.089499995263594e+02,1.131794540920406e-01,-9.472635944897957e-05,1.173189031113130e-01,2.915636892641188e-03,6.825855350439492e-03,-1.172802545558489e-05,7.082106956393765e-03,0.000000000000000e+00,0.000000000000000e+00,0.000000000000000e+00,9.999999999998001e+01,2.088545589708578e-13,0.000000000000000e+00,5.045145815200282e-04,0.000000000000000e+00,0.000000000000000e+00,9.532594000980182e-07,1.278000000000000e-09,4.680000000000000e+03,6.000000000000000e-01,1,7.100000232458115e-02,7.100000232458115e-02,0.000000000000000e+00,0.000000000000000e+00
1.185984003960912e-01,5.087500006110411e+02,1.130712126716951e-01,-9.559164586518649e-05,1.172644507190655e-01,2.926216619810415e-03,6.818499755593359e-03,-1.183515615473423e-05,7.078081158525045e-03,0.000000000000000e+00,0.000000000000000e+00,0.000000000000000e+00,9.999999999997999e+01,2.113883093031710e-13,0.000000000000000e+00,5.114380809888435e-04,0.000000000000000e+00,0.000000000000000e+00,9.533007998734887e-07,1.278000000000000e-09,4.680000000000000e+03,6.000000000000000e-01,1,7.199999690055847e-02,7.199999690055847e-02,0.000000000000000e+00,0.000000000000000e+00
1.184706001370969e-01,5.085500002056067e+02,1.129629704448837e-01,-9.645693872831455e-05,1.172099979211139e-01,2.936796425805180e-03,6.811144105943477e-03,-1.194228765207381e-05,7.074055330661631e-03,0.000000000000000e+00,0.000000000000000e+00,0.000000000000000e+00,9.999999999998001e+01,2.139220785134976e-13,0.000000000000000e+00,5.183616320420293e-04,0.000000000000000e+00,0.000000000000000e+00,9.533421999574133e-07,1.278000000000000e-09,4.680000000000000e+03,6.000000000000000e-01,1,7.299999892711639e-02,7.299999892711639e-02,0.000000000000000e+00,0.000000000000000e+00
1.183427998781026e-01,5.083499998001722e+02,1.128547282180723e-01,-9.732223159144263e-05,1.171555451231623e-01,2.947376231799945e-03,6.803788456293594e-03,-1.204941914941340e-05,7.070029502798217e-03,0.000000000000000e+00,0.000000000000000e+00,0.000000000000000e+00,9.999999999997999e+01,2.164558477238242e-13,0.000000000000000e+00,5.252851830952153e-04,0.000000000000000e+00,0.000000000000000e+00,9.533836000413379e-07,1.278000000000000e-09,4.680000000000000e+03,6.000000000000000e-01,1,7.400000095367432e-02,7.400000095367432e-02,0.000000000000000e+00,0.000000000000000e+00
1.182149996191083e-01,5.081499993947378e+02,1.127464859912609e-01,-9.818752445457069e-05,1.171010923252107e-01,2.957956037794710e-03,6.796432806643712e-03,-1.215655064675298e-05,7.066003674934804e-03,0.000000000000000e+00,0.000000000000000e+00,0.000000000000000e+00,9.999999999998001e+01,2.189896169341508e-13,0.000000000000000e+00,5.322087341484013e-04,0.000000000000000e+00,0.000000000000000e+00,9.534250001252625e-07,1.278000000000000e-09,4.680000000000000e+03,6.000000000000000e-01,1,7.500000298023224e-02,7.500000298023224e-02,0.000000000000000e+00,0.000000000000000e+00
1.180872003122981e-01,5.079500004794195e+02,1.126382445709153e-01,-9.905281087077760e-05,1.170466399329632e-01,2.968535764963937e-03,6.789077211797578e-03,-1.226368134590232e-05,7.061977877066084e-03,0.000000000000000e+00,0.000000000000000e+00,0.000000000000000e+00,9.999999999998001e+01,2.215233672664639e-13,0.000000000000000e+00,5.391322336172166e-04,0.000000000000000e+00,0.000000000000000e+00,9.534663999007329e-07,1.278000000000000e-09,4.680000000000000e+03,6.000000000000000e-01,1,7.599999755620956e-02,7.599999755620956e-02,0.000000000000000e+00,0.000000000000000e+00
1.179594000533038e-01,5.077500000739851e+02,1.125300023441039e-01,-9.991810373390568e-05,1.169921871350116e-01,2.979115570958702e-03,6.781721562147696e-03,-1.237081284324191e-05,7.057952049202671e-03,0.000000000000000e+00,0.000000000000000e+00,0.000000000000000e+00,9.999999999998001e+01,2.240571364767905e-13,0.000000000000000e+00,5.460557846704025e-04,0.000000000000000e+00,0.000000000000000e+00,9.535077999846575e-07,1.278000000000000e-09,4.680000000000000e+03,6.000000000000000e-01,1,7.699999958276749e-02,7.699999958276749e-02,0.000000000000000e+00,0.000000000000000e+00
1.178315997943095e-01,5.075499996685506e+02,1.124217601172925e-01,-1.007833965970337e-04,1.169377343370599e-01,2.989695376953466e-03,6.774365912497813e-03,-1.247794434058149e-05,7.053926221339256e-03,0.000000000000000e+00,0.000000000000000e+00,0.000000000000000e+00,9.999999999998001e+01,2.265909056871171e-13,0.000000000000000e+00,5.529793357235884e-04,0.000000000000000e+00,0.000000000000000e+00,9.535492000685821e-07,1.278000000000000e-09,4.680000000000000e+03,6.000000000000000e-01,1,7.800000160932541e-02,7.800000160932541e-02,0.000000000000000e+00,0.000000000000000e+00
1.177037995353152e-01,5.073499992631162e+02,1.123135178904811e-01,-1.016486894601618e-04,1.168832815391083e-01,3.000275182948231e-03,6.767010262847930e-03,-1.258507583792107e-05,7.049900393475843e-03,0.000000000000000e+00,0.000000000000000e+00,0.000000000000000e+00,9.999999999998001e+01,2.291246748974436e-13,0.000000000000000e+00,5.599028867767743e-04,0.000000000000000e+00,0.000000000000000e+00,9.535906001525067e-07,1.278000000000000e-09,4.680000000000000e+03,6.000000000000000e-01,1,7.900000363588333e-02,7.900000363588333e-02,0.000000000000000e+00,0.000000000000000e+00
1.175760002285050e-01,5.071500003477979e+02,1.122052764701356e-01,-1.025139758763687e-04,1.168288291468608e-01,3.010854910117458e-03,6.759654668001797e-03,-1.269220653707041e-05,7.045874595607122e-03,0.000000000000000e+00,0.000000000000000e+00,0.000000000000000e+00,9.999999999998001e+01,2.316584252297568e-13,0.000000000000000e+00,5.668263862455896e-04,0.000000000000000e+00,0.000000000000000e+00,9.536319999279772e-07,1.278000000000000e-09,4.680000000000000e+03,6.000000000000000e-01,1,7.999999821186066e-02,7.999999821186066e-02,0.000000000000000e+00,0.000000000000000e+00
1.174481999695108e-01,5.069499999423685e+02,1.121051127270365e-01,-1.034409134351739e-04,1.167391163106548e-01,3.011889201998622e-03,6.753390027741124e-03,-1.280697023482735e-05,7.040256916249393e-03,0.000000000000000e+00,0.000000000000000e+00,0.000000000000000e+00,9.999999999998002e+01,2.360020263543508e-13,0.000000000000000e+00,5.734762688940831e-04,0.000000000000000e+00,0.000000000000000e+00,9.536734000119018e-07,1.278000000000000e-09,4.680000000000000e+03,6.000000000000000e-01,1,8.100000023841858e-02,8.100000023841858e-02,0.000000000000000e+00,0.000000000000000e+00
1.173203997105165e-01,5.067499995369392e+02,1.120049489983817e-01,-1.043678511041991e-04,1.166494034114041e-01,3.012923476812512e-03,6.747125389431165e-03,-1.292173394623058e-05,7.034639234045450e-03,0.000000000000000e+00,0.000000000000000e+00,0.000000000000000e+00,9.999999999997999e+01,2.403456307149043e-13,0.000000000000000e+00,5.801261510532604e-04,0.000000000000000e+00,0.000000000000000e+00,9.537148000958263e-07,1.278000000000000e-09,4.679999999999999e+03,6.000000000000000e-01,1,8.200000226497650e-02,8.200000226497650e-02,0.000000000000000e+00,0.000000000000000e+00
1.171926004037065e-01,5.065500006216260e+02,1.119047860160033e-01,-1.052947818670146e-04,1.165596911805653e-01,3.013957743920469e-03,6.740860797796304e-03,-1.303649680257927e-05,7.029021593696418e-03,0.000000000000000e+00,0.000000000000000e+00,0.000000000000000e+00,9.999999999998001e+01,2.446892027131489e-13,0.000000000000000e+00,5.867759836670552e-04,0.000000000000000e+00,0.000000000000000e+00,9.537561998712967e-07,1.278000000000000e-09,4.680000000000000e+03,6.000000000000000e-01,1,8.299999684095383e-02,8.299999684095383e-02,0.000000000000000e+00,0.000000000000000e+00
1.170648001447122e-01,5.063500002161966e+02,1.118046222873485e-01,-1.062217195360398e-04,1.164699782813147e-01,3.014992018734358e-03,6.734596159486343e-03,-1.315126051398250e-05,7.023403911492475e-03,0.000000000000000e+00,0.000000000000000e+00,0.000000000000000e+00,9.999999999998001e+01,2.490328070737023e-13,0.000000000000000e+00,5.934258658262326e-04,0.000000000000000e+00,0.000000000000000e+00,9.537975999552212e-07,1.278000000000000e-09,4.680000000000000e+03,6.000000000000000e-01,1,8.399999886751175e-02,8.399999886751175e-02,0.000000000000000e+00,0.000000000000000e+00
1.169369998857179e-01,5.061499998107673e+02,1.117044585586937e-01,-1.071486572050650e-04,1.163802653820641e-01,3.016026293548248e-03,6.728331521176384e-03,-1.326602422538573e-05,7.017786229288532e-03,0.000000000000000e+00,0.000000000000000e+00,0.000000000000000e+00,9.999999999998001e+01,2.533764114342558e-13,0.000000000000000e+00,6.000757479854100e-04,0.000000000000000e+00,0.000000000000000e+00,9.538390000391459e-07,1.278000000000000e-09,4.680000000000000e+03,6.000000000000000e-01,1,8.500000089406967e-02,8.500000089406967e-02,0.000000000000000e+00,0.000000000000000e+00
1.168091996267237e-01,5.059499994053380e+02,1.116042948300389e-01,-1.080755948740903e-04,1.162905524828134e-01,3.017060568362139e-03,6.722066882866425e-03,-1.338078793678896e-05,7.012168547084591e-03,0.000000000000000e+00,0.000000000000000e+00,0.000000000000000e+00,9.999999999998001e+01,2.577200157948092e-13,0.000000000000000e+00,6.067256301445874e-04,0.000000000000000e+00,0.000000000000000e+00,9.538804001230704e-07,1.278000000000000e-09,4.680000000000000e+03,6.000000000000001e-01,1,8.600000292062759e-02,8.600000292062759e-02,0.000000000000000e+00,0.000000000000000e+00
1.166814003199136e-01,5.057500004900248e+02,1.115041318476605e-01,-1.090025256369056e-04,1.162008402519746e-01,3.018094835470096e-03,6.715802291231564e-03,-1.349555079313764e-05,7.006550906735558e-03,0.000000000000000e+00,0.000000000000000e+00,0.000000000000000e+00,9.999999999998001e+01,2.620635877930538e-13,0.000000000000000e+00,6.133754627583822e-04,0.000000000000000e+00,0.000000000000000e+00,9.539217998985411e-07,1.278000000000000e-09,4.680000000000000e+03,6.000000000000000e-01,1,8.699999749660492e-02,8.699999749660492e-02,0.000000000000000e+00,0.000000000000000e+00
1.165536000609193e-01,5.055500000845955e+02,1.114039681190057e-01,-1.099294633059309e-04,1.161111273527240e-01,3.019129110283986e-03,6.709537652921605e-03,-1.361031450454087e-05,7.000933224531616e-03,0.000000000000000e+00,0.000000000000000e+00,0.000000000000000e+00,9.999999999998002e+01,2.664071921536072e-13,0.000000000000000e+00,6.200253449175595e-04,0.000000000000000e+00,0.000000000000000e+00,9.539631999824656e-07,1.278000000000000e-09,4.680000000000000e+03,6.000000000000000e-01,1,8.799999952316284e-02,8.799999952316284e-02,0.000000000000000e+00,0.000000000000000e+00
1.164257998019251e-01,5.053499996791661e+02,1.113038043903508e-01,-1.108564009749561e-04,1.160214144534734e-01,3.020163385097876e-03,6.703273014611644e-03,-1.372507821594410e-05,6.995315542327673e-03,0.000000000000000e+00,0.000000000000000e+00,0.000000000000000e+00,9.999999999998001e+01,2.707507965141606e-13,0.000000000000000e+00,6.266752270767369e-04,0.000000000000000e+00,0.000000000000000e+00,9.540046000663901e-07,1.278000000000000e-09,4.680000000000000e+03,6.000000000000000e-01,1,8.900000154972076e-02,8.900000154972076e-02,0.000000000000000e+00,0.000000000000000e+00
1.162979995429308e-01,5.051499992737368e+02,1.112036406616961e-01,-1.117833386439814e-04,1.159317015542227e-01,3.021197659911766e-03,6.697008376301685e-03,-1.383984192734733e-05,6.989697860123730e-03,0.000000000000000e+00,0.000000000000000e+00,0.000000000000000e+00,9.999999999998001e+01,2.750944008747141e-13,0.000000000000000e+00,6.333251092359143e-04,0.000000000000000e+00,0.000000000000000e+00,9.540460001503148e-07,1.278000000000000e-09,4.680000000000000e+03,6.000000000000001e-01,1,9.000000357627869e-02,9.000000357627869e-02,0.000000000000000e+00,0.000000000000000e+00
1.161702002361207e-01,5.049500003584235e+02,1.111034776793176e-01,-1.127102694067968e-04,1.158419893233839e-01,3.022231927019723e-03,6.690743784666823e-03,-1.395460478369601e-05,6.984080219774697e-03,0.000000000000000e+00,0.000000000000000e+00,0.000000000000000e+00,9.999999999997999e+01,2.794379728729587e-13,0.000000000000000e+00,6.399749418497091e-04,0.000000000000000e+00,0.000000000000000e+00,9.540873999257850e-07,1.278000000000000e-09,4.680000000000000e+03,6.000000000000000e-01,1,9.099999815225601e-02,9.099999815225601e-02,0.000000000000000e+00,0.000000000000000e+00
1.160423999771265e-01,5.047499999529942e+02,1.110033139506628e-01,-1.136372070758220e-04,1.157522764241333e-01,3.023266201833613e-03,6.684479146356864e-03,-1.406936849509925e-05,6.978462537570755e-03,0.000000000000000e+00,0.000000000000000e+00,0.000000000000000e+00,9.999999999998001e+01,2.837815772335121e-13,0.000000000000000e+00,6.466248240088865e-04,0.000000000000000e+00,0.000000000000000e+00,9.541288000097097e-07,1.278000000000000e-09,4.680000000000000e+03,6.000000000000000e-01,1,9.200000017881393e-02,9.200000017881393e-02,0.000000000000000e+00,0.000000000000000e+00
1.159145997181322e-01,5.045499995475649e+02,1.109031502220080e-01,-1.145641447448472e-04,1.156625635248827e-01,3.024300476647503e-03,6.678214508046905e-03,-1.418413220650248e-05,6.972844855366814e-03,0.000000000000000e+00,0.000000000000000e+00,0.000000000000000e+00,9.999999999998001e+01,2.881251815940655e-13,0.000000000000000e+00,6.532747061680638e-04,0.000000000000000e+00,0.000000000000000e+00,9.541702000936344e-07,1.278000000000000e-09,4.680000000000000e+03,6.000000000000001e-01,1,9.300000220537186e-02,9.300000220537186e-02,0.000000000000000e+00,0.000000000000000e+00
1.157868004113222e-01,5.043500006322516e+02,1.108029872396296e-01,-1.154910755076626e-04,1.155728512940439e-01,3.025334743755460e-03,6.671949916412043e-03,-1.429889506285116e-05,6.967227215017780e-03,0.000000000000000e+00,0.000000000000000e+00,0.000000000000000e+00,9.999999999997999e+01,2.924687535923101e-13,0.000000000000000e+00,6.599245387818585e-04,0.000000000000000e+00,0.000000000000000e+00,9.542115998691047e-07,1.278000000000000e-09,4.680000000000000e+03,5.999999999999999e-01,1,9.399999678134918e-02,9.399999678134918e-02,0.000000000000000e+00,0.000000000000000e+00
1.156590001523279e-01,5.041500002268223e+02,1.107028235109748e-01,-1.164180131766879e-04,1.154831383947933e-01,3.026369018569350e-03,6.665685278102084e-03,-1.441365877425439e-05,6.961609532813837e-03,0.000000000000000e+00,0.000000000000000e+00,0.000000000000000e+00,9.999999999998001e+01,2.968123579528635e-13,0.000000000000000e+00,6.665744209410360e-04,0.000000000000000e+00,0.000000000000000e+00,9.542529999530294e-07,1.278000000000000e-09,4.680000000000000e+03,6.000000000000000e-01,1,9.499999880790710e-02,9.499999880790710e-02,0.000000000000000e+00,0.000000000000000e+00
1.155311998933336e-01,5.039499998213930e+02,1.106026597823200e-01,-1.173449508457131e-04,1.153934254955426e-01,3.027403293383240e-03,6.659420639792125e-03,-1.452842248565762e-05,6.955991850609896e-03,0.000000000000000e+00,0.000000000000000e+00,0.000000000000000e+00,9.999999999998002e+01,3.011559623134170e-13,0.000000000000000e+00,6.732243031002134e-04,0.000000000000000e+00,0.000000000000000e+00,9.542944000369539e-07,1.278000000000000e-09,4.680000000000000e+03,6.000000000000000e-01,1,9.600000083446503e-02,9.600000083446503e-02,0.000000000000000e+00,0.000000000000000e+00
1.154033996343394e-01,5.037499994159637e+02,1.105024960536652e-01,-1.182718885147383e-04,1.153037125962920e-01,3.028437568197130e-03,6.653156001482165e-03,-1.464318619706085e-05,6.950374168405953e-03,0.000000000000000e+00,0.000000000000000e+00,0.000000000000000e+00,9.999999999998001e+01,3.054995666739704e-13,0.000000000000000e+00,6.798741852593907e-04,0.000000000000000e+00,0.000000000000000e+00,9.543358001208783e-07,1.278000000000000e-09,4.680000000000000e+03,6.000000000000000e-01,1,9.700000286102295e-02,9.700000286102295e-02,0.000000000000000e+00,0.000000000000000e+00
1.152756003275293e-01,5.035500005006504e+02,1.104023330712868e-01,-1.191988192775537e-04,1.152140003654532e-01,3.029471835305088e-03,6.646891409847303e-03,-1.475794905340953e-05,6.944756528056920e-03,0.000000000000000e+00,0.000000000000000e+00,0.000000000000000e+00,9.999999999998001e+01,3.098431386722151e-13,0.000000000000000e+00,6.865240178731856e-04,0.000000000000000e+00,0.000000000000000e+00,9.543771998963490e-07,1.278000000000000e-09,4.680000000000000e+03,6.000000000000000e-01,1,9.799999743700027e-02,9.799999743700027e-02,0.000000000000000e+00,0.000000000000000e+00
1.151478000685350e-01,5.033500000952210e+02,1.103021693426320e-01,-1.201257569465789e-04,1.151242874662026e-01,3.030506110118978e-03,6.640626771537343e-03,-1.487271276481276e-05,6.939138845852977e-03,0.000000000000000e+00,0.000000000000000e+00,0.000000000000000e+00,9.999999999997999e+01,3.141867430327685e-13,0.000000000000000e+00,6.931739000323629e-04,0.000000000000000e+00,0.000000000000000e+00,9.544185999802733e-07,1.278000000000000e-09,4.680000000000000e+03,6.000000000000000e-01,1,9.899999946355820e-02,9.899999946355820e-02,0.000000000000000e+00,0.000000000000000e+00
1.150199998095408e-01,5.031499996897918e+02,1.102020056139772e-01,-1.210526946156042e-04,1.150345745669519e-01,3.031540384932868e-03,6.634362133227384e-03,-1.498747647621599e-05,6.933521163649035e-03,0.000000000000000e+00,0.000000000000000e+00,0.000000000000000e+00,9.999999999998001e+01,3.185303473933219e-13,0.000000000000000e+00,6.998237821915403e-04,0.000000000000000e+00,0.000000000000000e+00,9.544600000641980e-07,1.278000000000000e-09,4.680000000000000e+03,6.000000000000000e-01,1,1.000000014901161e-01,1.000000014901161e-01,0.000000000000000e+00,0.000000000000000e+00
1.148921995505465e-01,5.029499992843624e+02,1.101018418853224e-01,-1.219796322846294e-04,1.149448616677013e-01,3.032574659746758e-03,6.628097494917424e-03,-1.510224018761922e-05,6.927903481445093e-03,0.000000000000000e+00,0.000000000000000e+00,0.000000000000000e+00,9.999999999998001e+01,3.228739517538753e-13,0.000000000000000e+00,7.064736643507177e-04,0.000000000000000e+00,0.000000000000000e+00,9.545014001481227e-07,1.278000000000000e-09,4.680000000000000e+03,6.000000000000000e-01,1,1.010000035166740e-01,1.010000035166740e-01,0.000000000000000e+00,0.000000000000000e+00
1.147644002437365e-01,5.027500003690493e+02,1.100016789029440e-01,-1.229065630474448e-04,1.148551494368625e-01,3.033608926854715e-03,6.621832903282563e-03,-1.521700304396791e-05,6.922285841096059e-03,0.000000000000000e+00,0.000000000000000e+00,0.000000000000000e+00,9.999999999998001e+01,3.272175237521199e-13,0.000000000000000e+00,7.131234969645125e-04,0.000000000000000e+00,0.000000000000000e+00,9.545427999235931e-07,1.278000000000000e-09,4.680000000000000e+03,6.000000000000000e-01,1,1.019999980926514e-01,1.019999980926514e-01,0.000000000000000e+00,0.000000000000000e+00
1.146365999847422e-01,5.025499999636199e+02,1.099015151742892e-01,-1.238335007164701e-04,1.147654365376119e-01,3.034643201668605e-03,6.615568264972603e-03,-1.533176675537114e-05,6.916668158892117e-03,0.000000000000000e+00,0.000000000000000e+00,0.000000000000000e+00,9.999999999998001e+01,3.315611281126734e-13,0.000000000000000e+00,7.197733791236898e-04,0.000000000000000e+00,0.000000000000000e+00,9.545842000075178e-07,1.278000000000000e-09,4.680000000000000e+03,6.000000000000000e-01,1,1.030000001192093e-01,1.030000001192093e-01,0.000000000000000e+00,0.000000000000000e+00
1.145087997257479e-01,5.023499995581906e+02,1.098013514456344e-01,-1.247604383854953e-04,1.146757236383612e-01,3.035677476482495e-03,6.609303626662644e-03,-1.544653046677437e-05,6.911050476688175e-03,0.000000000000000e+00,0.000000000000000e+00,0.000000000000000e+00,9.999999999998001e+01,3.359047324732267e-13,0.000000000000000e+00,7.264232612828671e-04,0.000000000000000e+00,0.000000000000000e+00,9.546256000914421e-07,1.278000000000000e-09,4.680000000000000e+03,6.000000000000000e-01,1,1.040000021457672e-01,1.040000021457672e-01,0.000000000000000e+00,0.000000000000000e+00
1.143810004189379e-01,5.021500006428773e+02,1.097011884632560e-01,-1.256873691483107e-04,1.145860114075224e-01,3.036711743590452e-03,6.603039035027783e-03,-1.556129332312305e-05,6.905432836339142e-03,0.000000000000000e+00,0.000000000000000e+00,0.000000000000000e+00,9.999999999998001e+01,3.402483044714714e-13,0.000000000000000e+00,7.330730938966619e-04,0.000000000000000e+00,0.000000000000000e+00,9.546669998669128e-07,1.278000000000000e-09,4.680000000000000e+03,6.000000000000000e-01,1,1.049999967217445e-01,1.049999967217445e-01,0.000000000000000e+00,0.000000000000000e+00
1.142532001599436e-01,5.019500002374481e+02,1.096010247346011e-01,-1.266143068173359e-04,1.144962985082718e-01,3.037746018404342e-03,6.596774396717823e-03,-1.567605703452628e-05,6.899815154135200e-03,0.000000000000000e+00,0.000000000000000e+00,0.000000000000000e+00,9.999999999998001e+01,3.445919088320248e-13,0.000000000000000e+00,7.397229760558394e-04,0.000000000000000e+00,0.000000000000000e+00,9.547083999508373e-07,1.278000000000000e-09,4.680000000000000e+03,6.000000000000000e-01,1,1.059999987483025e-01,1.059999987483025e-01,0.000000000000000e+00,0.000000000000000e+00
1.141253999009494e-01,5.017499998320187e+02,1.095008610059464e-01,-1.275412444863611e-04,1.144065856090212e-01,3.038780293218232e-03,6.590509758407864e-03,-1.579082074592951e-05,6.894197471931257e-03,0.000000000000000e+00,0.000000000000000e+00,0.000000000000000e+00,9.999999999998001e+01,3.489355131925782e-13,0.000000000000000e+00,7.463728582150168e-04,0.000000000000000e+00,0.000000000000000e+00,9.547498000347620e-07,1.278000000000000e-09,4.680000000000000e+03,6.000000000000000e-01,1,1.070000007748604e-01,1.070000007748604e-01,0.000000000000000e+00,0.000000000000000e+00
1.139975996419551e-01,5.015499994265894e+02,1.094006972772915e-01,-1.284681821553864e-04,1.143168727097705e-01,3.039814568032122e-03,6.584245120097905e-03,-1.590558445733274e-05,6.888579789727315e-03,0.000000000000000e+00,0.000000000000000e+00,0.000000000000000e+00,9.999999999997999e+01,3.532791175531316e-13,0.000000000000000e+00,7.530227403741940e-04,0.000000000000000e+00,0.000000000000000e+00,9.547912001186863e-07,1.278000000000000e-09,4.680000000000000e+03,6.000000000000000e-01,1,1.080000028014183e-01,1.080000028014183e-01,0.000000000000000e+00,0.000000000000000e+00
1.138698003351450e-01,5.013500005112761e+02,1.093005342949131e-01,-1.293951129182018e-04,1.142271604789317e-01,3.040848835140079e-03,6.577980528463043e-03,-1.602034731368143e-05,6.882962149378282e-03,0.000000000000000e+00,0.000000000000000e+00,0.000000000000000e+00,9.999999999998001e+01,3.576226895513762e-13,0.000000000000000e+00,7.596725729879888e-04,0.000000000000000e+00,0.000000000000000e+00,9.548325998941569e-07,1.278000000000000e-09,4.680000000000000e+03,6.000000000000000e-01,1,1.089999973773956e-01,1.089999973773956e-01,0.000000000000000e+00,0.000000000000000e+00
1.137420000761508e-01,5.011500001058468e+02,1.092003705662583e-01,-1.303220505872270e-04,1.141374475796811e-01,3.041883109953969e-03,6.571715890153083e-03,-1.613511102508465e-05,6.877344467174340e-03,0.000000000000000e+00,0.000000000000000e+00,0.000000000000000e+00,9.999999999998001e+01,3.619662939119297e-13,0.000000000000000e+00,7.663224551471663e-04,0.000000000000000e+00,0.000000000000000e+00,9.548739999780814e-07,1.278000000000000e-09,4.680000000000000e+03,6.000000000000000e-01,1,1.099999994039536e-01,1.099999994039536e-01,0.000000000000000e+00,0.000000000000000e+00
1.136141998171565e-01,5.009499997004175e+02,1.091002068376035e-01,-1.312489882562522e-04,1.140477346804305e-01,3.042917384767859e-03,6.565451251843124e-03,-1.624987473648789e-05,6.871726784970398e-03,0.000000000000000e+00,0.000000000000000e+00,0.000000000000000e+00,9.999999999998001e+01,3.663098982724831e-13,0.000000000000000e+00,7.729723373063437e-04,0.000000000000000e+00,0.000000000000000e+00,9.549154000620061e-07,1.278000000000000e-09,4.680000000000000e+03,6.000000000000000e-01,1,1.110000014305115e-01,1.110000014305115e-01,0.000000000000000e+00,0.000000000000000e+00
1.134863995581623e-01,5.007499992949881e+02,1.090000431089487e-01,-1.321759259252775e-04,1.139580217811799e-01,3.043951659581749e-03,6.559186613533164e-03,-1.636463844789112e-05,6.866109102766455e-03,0.000000000000000e+00,0.000000000000000e+00,0.000000000000000e+00,9.999999999997999e+01,3.706535026330365e-13,0.000000000000000e+00,7.796222194655211e-04,0.000000000000000e+00,0.000000000000000e+00,9.549568001459306e-07,1.278000000000000e-09,4.680000000000000e+03,6.000000000000000e-01,1,1.120000034570694e-01,1.120000034570694e-01,0.000000000000000e+00,0.000000000000000e+00
1.133586002513522e-01,5.005500003796749e+02,1.088998801265703e-01,-1.331028566880929e-04,1.138683095503411e-01,3.044985926689707e-03,6.552922021898303e-03,-1.647940130423980e-05,6.860491462417422e-03,0.000000000000000e+00,0.000000000000000e+00,0.000000000000000e+00,9.999999999998001e+01,3.749970746312812e-13,0.000000000000000e+00,7.862720520793158e-04,0.000000000000000e+00,0.000000000000000e+00,9.549981999214011e-07,1.278000000000000e-09,4.680000000000000e+03,6.000000000000000e-01,1,1.129999980330467e-01,1.129999980330467e-01,0.000000000000000e+00,0.000000000000000e+00
1.132307999923579e-01,5.003499999742456e+02,1.087997163979155e-01,-1.340297943571181e-04,1.137785966510904e-01,3.046020201503597e-03,6.546657383588343e-03,-1.659416501564303e-05,6.854873780213479e-03,0.000000000000000e+00,0.000000000000000e+00,0.000000000000000e+00,9.999999999998001e+01,3.793406789918346e-13,0.000000000000000e+00,7.929219342384931e-04,0.000000000000000e+00,0.000000000000000e+00,9.550396000053255e-07,1.278000000000000e-09,4.680000000000000e+03,6.000000000000000e-01,1,1.140000000596046e-01,1.140000000596046e-01,0.000000000000000e+00,0.000000000000000e+00
1.131029997333637e-01,5.001499995688163e+02,1.086995526692607e-01,-1.349567320261434e-04,1.136888837518398e-01,3.047054476317486e-03,6.540392745278383e-03,-1.670892872704626e-05,6.849256098009538e-03,0.000000000000000e+00,0.000000000000000e+00,0.000000000000000e+00,9.999999999998001e+01,3.836842833523880e-13,0.000000000000000e+00,7.995718163976705e-04,0.000000000000000e+00,0.000000000000000e+00,9.550810000892502e-07,1.278000000000000e-09,4.680000000000000e+03,6.000000000000000e-01,1,1.150000020861626e-01,1.150000020861626e-01,0.000000000000000e+00,0.000000000000000e+00
1.129752004265536e-01,4.999500006535030e+02,1.085993896868823e-01,-1.358836627889588e-04,1.135991715210010e-01,3.048088743425444e-03,6.534128153643522e-03,-1.682369158339494e-05,6.843638457660504e-03,0.000000000000000e+00,0.000000000000000e+00,0.000000000000000e+00,9.999999999998001e+01,3.880278553506327e-13,0.000000000000000e+00,8.062216490114653e-04,0.000000000000000e+00,0.000000000000000e+00,9.551223998647207e-07,1.278000000000000e-09,4.680000000000000e+03,6.000000000000000e-01,1,1.159999966621399e-01,1.159999966621399e-01,0.000000000000000e+00,0.000000000000000e+00
1.128474001675593e-01,4.997500002480737e+02,1.084992259582275e-01,-1.368106004579840e-04,1.135094586217504e-01,3.049123018239334e-03,6.527863515333563e-03,-1.693845529479817e-05,6.838020775456562e-03,0.000000000000000e+00,0.000000000000000e+00,0.000000000000000e+00,9.999999999998001e+01,3.923714597111861e-13,0.000000000000000e+00,8.128715311706428e-04,0.000000000000000e+00,0.000000000000000e+00,9.551637999486454e-07,1.278000000000000e-09,4.680000000000000e+03,6.000000000000000e-01,1,1.169999986886978e-01,1.169999986886978e-01,0.000000000000000e+00,0.000000000000000e+00
1.127195999085651e-01,4.995499998426444e+02,1.083990622295727e-01,-1.377375381270092e-04,1.134197457224997e-01,3.050157293053224e-03,6.521598877023603e-03,-1.705321900620141e-05,6.832403093252619e-03,0.000000000000000e+00,0.000000000000000e+00,0.000000000000000e+00,9.999999999998001e+01,3.967150640717395e-13,0.000000000000000e+00,8.195214133298201e-04,0.000000000000000e+00,0.000000000000000e+00,9.552052000325697e-07,1.278000000000000e-09,4.680000000000000e+03,6.000000000000000e-01,1,1.180000007152557e-01,1.180000007152557e-01,0.000000000000000e+00,0.000000000000000e+00
1.125917996495708e-01,4.993499994372150e+02,1.082988985009179e-01,-1.386644757960344e-04,1.133300328232491e-01,3.051191567867114e-03,6.515334238713644e-03,-1.716798271760463e-05,6.826785411048677e-03,0.000000000000000e+00,0.000000000000000e+00,0.000000000000000e+00,9.999999999998001e+01,4.010586684322929e-13,0.000000000000000e+00,8.261712954889974e-04,0.000000000000000e+00,0.000000000000000e+00,9.552466001164944e-07,1.278000000000000e-09,4.680000000000000e+03,6.000000000000000e-01,1,1.190000027418137e-01,1.190000027418137e-01,0.000000000000000e+00,0.000000000000000e+00
1.124640003427607e-01,4.991500005219019e+02,1.081987355185395e-01,-1.395914065588498e-04,1.132403205924103e-01,3.052225834975071e-03,6.509069647078782e-03,-1.728274557395332e-05,6.821167770699644e-03,0.000000000000000e+00,0.000000000000000e+00,0.000000000000000e+00,9.999999999998001e+01,4.054022404305375e-13,0.000000000000000e+00,8.328211281027922e-04,0.000000000000000e+00,0.000000000000000e+00,9.552879998919650e-07,1.278000000000000e-09,4.680000000000000e+03,6.000000000000000e-01,1,1.199999973177910e-01,1.199999973177910e-01,0.000000000000000e+00,0.000000000000000e+00
1.123362000837663e-01,4.989500001164773e+02,1.080971419149417e-01,-1.385842501682618e-04,1.131244371856455e-01,3.045915441704243e-03,6.503171162629919e-03,-1.715805002083278e-05,6.814384679388161e-03,0.000000000000000e+00,0.000000000000000e+00,0.000000000000000e+00,9.999999999998002e+01,4.039543878431012e-13,0.000000000000000e+00,8.392251167209287e-04,0.000000000000000e+00,0.000000000000000e+00,9.553293999758870e-07,1.278000000000000e-09,4.680000000000000e+03,6.000000000000000e-01,1,1.209999993443489e-01,1.209999993443489e-01,0.000000000000000e+00,0.000000000000000e+00
1.122083998247719e-01,4.987499997110527e+02,1.079955483075091e-01,-1.375770885904126e-04,1.130085537086911e-01,3.039605028734936e-03,6.497272679163086e-03,-1.703335382547992e-05,6.807601584951039e-03,0.000000000000000e+00,0.000000000000000e+00,0.000000000000000e+00,9.999999999998001e+01,4.025065197229149e-13,0.000000000000000e+00,8.456291046795759e-04,0.000000000000000e+00,0.000000000000000e+00,9.553708000598092e-07,1.278000000000000e-09,4.680000000000000e+03,6.000000000000000e-01,1,1.220000013709068e-01,1.220000013709068e-01,0.000000000000000e+00,0.000000000000000e+00
1.120805995657775e-01,4.985499993056280e+02,1.078939547000764e-01,-1.365699270125635e-04,1.128926702317367e-01,3.033294615765629e-03,6.491374195696252e-03,-1.690865763012706e-05,6.800818490513915e-03,0.000000000000000e+00,0.000000000000000e+00,0.000000000000000e+00,9.999999999998001e+01,4.010586516027286e-13,0.000000000000000e+00,8.520330926382231e-04,0.000000000000000e+00,0.000000000000000e+00,9.554122001437313e-07,1.278000000000000e-09,4.680000000000000e+03,6.000000000000000e-01,1,1.230000033974648e-01,1.230000033974648e-01,0.000000000000000e+00,0.000000000000000e+00
1.119528002589673e-01,4.983500003903196e+02,1.077923618495736e-01,-1.355627729386376e-04,1.127767876181798e-01,3.026984249812466e-03,6.485475756176456e-03,-1.678396236383137e-05,6.794035446614682e-03,0.000000000000000e+00,0.000000000000000e+00,0.000000000000000e+00,9.999999999998002e+01,3.996107942699786e-13,0.000000000000000e+00,8.584370328835386e-04,0.000000000000000e+00,0.000000000000000e+00,9.554535999191992e-07,1.278000000000000e-09,4.680000000000000e+03,6.000000000000000e-01,1,1.239999979734421e-01,1.239999979734421e-01,0.000000000000000e+00,0.000000000000000e+00
1.118249999999728e-01,4.981499999848950e+02,1.076907682421409e-01,-1.345556113607885e-04,1.126609041412254e-01,3.020673836843159e-03,6.479577272709622e-03,-1.665926616847850e-05,6.787252352177559e-03,0.000000000000000e+00,0.000000000000000e+00,0.000000000000000e+00,9.999999999998001e+01,3.981629261497923e-13,0.000000000000000e+00,8.648410208421858e-04,0.000000000000000e+00,0.000000000000000e+00,9.554950000031214e-07,1.278000000000000e-09,4.680000000000000e+03,6.000000000000001e-01,1,1.250000000000000e-01,1.250000000000000e-01,0.000000000000000e+00,0.000000000000000e+00
1.116971997409784e-01,4.979499995794704e+02,1.075891746347082e-01,-1.335484497829393e-04,1.125450206642710e-01,3.014363423873851e-03,6.473678789242787e-03,-1.653456997312564e-05,6.780469257740436e-03,0.000000000000000e+00,0.000000000000000e+00,0.000000000000000e+00,9.999999999998001e+01,3.967150580296060e-13,0.000000000000000e+00,8.712450088008331e-04,0.000000000000000e+00,0.000000000000000e+00,9.555364000870433e-07,1.278000000000000e-09,4.680000000000000e+03,5.999999999999999e-01,1,1.260000020265579e-01,1.260000020265579e-01,0.000000000000000e+00,0.000000000000000e+00
1.115693994819840e-01,4.977499991740459e+02,1.074875810272756e-01,-1.325412882050902e-04,1.124291371873166e-01,3.008053010904544e-03,6.467780305775954e-03,-1.640987377777278e-05,6.773686163303314e-03,0.000000000000000e+00,0.000000000000000e+00,0.000000000000000e+00,9.999999999998002e+01,3.952671899094198e-13,0.000000000000000e+00,8.776489967594804e-04,0.000000000000000e+00,0.000000000000000e+00,9.555778001709657e-07,1.278000000000000e-09,4.680000000000000e+03,6.000000000000000e-01,1,1.270000040531158e-01,1.270000040531158e-01,0.000000000000000e+00,0.000000000000000e+00
1.114415992229896e-01,4.975499987686212e+02,1.073859874198429e-01,-1.315341266272410e-04,1.123132537103622e-01,3.001742597935237e-03,6.461881822309119e-03,-1.628517758241991e-05,6.766903068866189e-03,0.000000000000000e+00,0.000000000000000e+00,0.000000000000000e+00,9.999999999997999e+01,3.938193217892335e-13,0.000000000000000e+00,8.840529847181275e-04,0.000000000000000e+00,0.000000000000000e+00,9.556192002548877e-07,1.278000000000000e-09,4.680000000000000e+03,5.999999999999999e-01,1,1.280000060796738e-01,1.280000060796738e-01,0.000000000000000e+00,0.000000000000000e+00
1.113138008683636e-01,4.973500013434289e+02,1.072843953262699e-01,-1.305269800572385e-04,1.121973719602027e-01,2.995432278998220e-03,6.455983426736362e-03,-1.616048324518140e-05,6.760120075504846e-03,0.000000000000000e+00,0.000000000000000e+00,0.000000000000000e+00,9.999999999998001e+01,3.923714752439197e-13,0.000000000000000e+00,8.904568772501114e-04,0.000000000000000e+00,0.000000000000000e+00,9.556605997219017e-07,1.278000000000000e-09,4.680000000000000e+03,6.000000000000000e-01,1,1.289999932050705e-01,1.289999932050705e-01,0.000000000000000e+00,0.000000000000000e+00
1.111860006093691e-01,4.971500009380043e+02,1.071828017188372e-01,-1.295198184793893e-04,1.120814884832483e-01,2.989121866028913e-03,6.450084943269527e-03,-1.603578704982853e-05,6.753336981067724e-03,0.000000000000000e+00,0.000000000000000e+00,0.000000000000000e+00,9.999999999998002e+01,3.909236071237334e-13,0.000000000000000e+00,8.968608652087587e-04,0.000000000000000e+00,0.000000000000000e+00,9.557019998058237e-07,1.278000000000000e-09,4.680000000000000e+03,6.000000000000000e-01,1,1.299999952316284e-01,1.299999952316284e-01,0.000000000000000e+00,0.000000000000000e+00
1.110582003503747e-01,4.969500005325798e+02,1.070812081114046e-01,-1.285126569015402e-04,1.119656050062939e-01,2.982811453059606e-03,6.444186459802693e-03,-1.591109085447567e-05,6.746553886630599e-03,0.000000000000000e+00,0.000000000000000e+00,0.000000000000000e+00,9.999999999998001e+01,3.894757390035471e-13,0.000000000000000e+00,9.032648531674058e-04,0.000000000000000e+00,0.000000000000000e+00,9.557433998897459e-07,1.278000000000000e-09,4.680000000000000e+03,6.000000000000000e-01,1,1.309999972581863e-01,1.309999972581863e-01,0.000000000000000e+00,0.000000000000000e+00
1.109304000913803e-01,4.967500001271552e+02,1.069796145039719e-01,-1.275054953236910e-04,1.118497215293395e-01,2.976501040090299e-03,6.438287976335859e-03,-1.578639465912281e-05,6.739770792193477e-03,0.000000000000000e+00,0.000000000000000e+00,0.000000000000000e+00,9.999999999997999e+01,3.880278708833608e-13,0.000000000000000e+00,9.096688411260531e-04,0.000000000000000e+00,0.000000000000000e+00,9.557847999736680e-07,1.278000000000000e-09,4.680000000000000e+03,6.000000000000000e-01,1,1.319999992847443e-01,1.319999992847443e-01,0.000000000000000e+00,0.000000000000000e+00
1.108025998323859e-01,4.965499997217306e+02,1.068780208965392e-01,-1.264983337458418e-04,1.117338380523851e-01,2.970190627120991e-03,6.432389492869025e-03,-1.566169846376995e-05,6.732987697756355e-03,0.000000000000000e+00,0.000000000000000e+00,0.000000000000000e+00,9.999999999998002e+01,3.865800027631746e-13,0.000000000000000e+00,9.160728290847003e-04,0.000000000000000e+00,0.000000000000000e+00,9.558262000575902e-07,1.278000000000000e-09,4.680000000000000e+03,6.000000000000000e-01,1,1.330000013113022e-01,1.330000013113022e-01,0.000000000000000e+00,0.000000000000000e+00
1.106747995733914e-01,4.963499993163060e+02,1.067764272891066e-01,-1.254911721679927e-04,1.116179545754307e-01,2.963880214151684e-03,6.426491009402191e-03,-1.553700226841708e-05,6.726204603319231e-03,0.000000000000000e+00,0.000000000000000e+00,0.000000000000000e+00,9.999999999998001e+01,3.851321346429883e-13,0.000000000000000e+00,9.224768170433476e-04,0.000000000000000e+00,0.000000000000000e+00,9.558676001415121e-07,1.278000000000000e-09,4.680000000000000e+03,6.000000000000000e-01,1,1.340000033378601e-01,1.340000033378601e-01,0.000000000000000e+00,0.000000000000000e+00
1.105469993143970e-01,4.961499989108814e+02,1.066748336816739e-01,-1.244840105901435e-04,1.115020710984763e-01,2.957569801182377e-03,6.420592525935357e-03,-1.541230607306422e-05,6.719421508882108e-03,0.000000000000000e+00,0.000000000000000e+00,0.000000000000000e+00,9.999999999998001e+01,3.836842665228020e-13,0.000000000000000e+00,9.288808050019948e-04,0.000000000000000e+00,0.000000000000000e+00,9.559090002254343e-07,1.278000000000000e-09,4.680000000000000e+03,6.000000000000000e-01,1,1.350000053644180e-01,1.350000053644180e-01,0.000000000000000e+00,0.000000000000000e+00
1.104191990554026e-01,4.959499985054568e+02,1.065732400742412e-01,-1.234768490122944e-04,1.113861876215219e-01,2.951259388213070e-03,6.414694042468523e-03,-1.528760987771136e-05,6.712638414444986e-03,0.000000000000000e+00,0.000000000000000e+00,0.000000000000000e+00,9.999999999998001e+01,3.822363984026157e-13,0.000000000000000e+00,9.352847929606420e-04,0.000000000000000e+00,0.000000000000000e+00,9.559504003093564e-07,1.278000000000000e-09,4.680000000000000e+03,6.000000000000000e-01,1,1.360000073909760e-01,1.360000073909760e-01,0.000000000000000e+00,0.000000000000000e+00
1.102914007007766e-01,4.957500010802645e+02,1.064716479806682e-01,-1.224697024422918e-04,1.112703058713624e-01,2.944949069276052e-03,6.408795646895765e-03,-1.516291554047284e-05,6.705855421083642e-03,0.000000000000000e+00,0.000000000000000e+00,0.000000000000000e+00,9.999999999998001e+01,3.807885518573019e-13,0.000000000000000e+00,9.416886854926258e-04,0.000000000000000e+00,0.000000000000000e+00,9.559917997763703e-07,1.278000000000000e-09,4.680000000000000e+03,6.000000000000000e-01,1,1.369999945163727e-01,1.369999945163727e-01,0.000000000000000e+00,0.000000000000000e+00
1.101636004417822e-01,4.955500006748399e+02,1.063700543732355e-01,-1.214625408644427e-04,1.111544223944080e-01,2.938638656306745e-03,6.402897163428930e-03,-1.503821934511998e-05,6.699072326646518e-03,0.000000000000000e+00,0.000000000000000e+00,0.000000000000000e+00,9.999999999998001e+01,3.793406837371157e-13,0.000000000000000e+00,9.480926734512730e-04,0.000000000000000e+00,0.000000000000000e+00,9.560331998602925e-07,1.278000000000000e-09,4.680000000000000e+03,6.000000000000000e-01,1,1.379999965429306e-01,1.379999965429306e-01,0.000000000000000e+00,0.000000000000000e+00
1.100358001827877e-01,4.953500002694153e+02,1.062684607658029e-01,-1.204553792865935e-04,1.110385389174536e-01,2.932328243337438e-03,6.396998679962096e-03,-1.491352314976712e-05,6.692289232209396e-03,0.000000000000000e+00,0.000000000000000e+00,0.000000000000000e+00,9.999999999998001e+01,3.778928156169294e-13,0.000000000000000e+00,9.544966614099203e-04,0.000000000000000e+00,0.000000000000000e+00,9.560745999442146e-07,1.278000000000000e-09,4.680000000000000e+03,6.000000000000000e-01,1,1.389999985694885e-01,1.389999985694885e-01,0.000000000000000e+00,0.000000000000000e+00
1.099079999237933e-01,4.951499998639907e+02,1.061668671583702e-01,-1.194482177087443e-04,1.109226554404992e-01,2.926017830368131e-03,6.391100196495262e-03,-1.478882695441425e-05,6.685506137772274e-03,0.000000000000000e+00,0.000000000000000e+00,0.000000000000000e+00,9.999999999998001e+01,3.764449474967431e-13,0.000000000000000e+00,9.609006493685676e-04,0.000000000000000e+00,0.000000000000000e+00,9.561160000281368e-07,1.278000000000000e-09,4.680000000000000e+03,6.000000000000000e-01,1,1.400000005960464e-01,1.400000005960464e-01,0.000000000000000e+00,0.000000000000000e+00
1.097801996647989e-01,4.949499994585661e+02,1.060652735509375e-01,-1.184410561308952e-04,1.108067719635448e-01,2.919707417398824e-03,6.385201713028428e-03,-1.466413075906139e-05,6.678723043335151e-03,0.000000000000000e+00,0.000000000000000e+00,0.000000000000000e+00,9.999999999998001e+01,3.749970793765568e-13,0.000000000000000e+00,9.673046373272149e-04,0.000000000000000e+00,0.000000000000000e+00,9.561574001120590e-07,1.278000000000000e-09,4.680000000000000e+03,6.000000000000000e-01,1,1.410000026226044e-01,1.410000026226044e-01,0.000000000000000e+00,0.000000000000000e+00
1.096523994058045e-01,4.947499990531416e+02,1.059636799435049e-01,-1.174338945530460e-04,1.106908884865904e-01,2.913397004429517e-03,6.379303229561595e-03,-1.453943456370853e-05,6.671939948898028e-03,0.000000000000000e+00,0.000000000000000e+00,0.000000000000000e+00,9.999999999998001e+01,3.735492112563706e-13,0.000000000000000e+00,9.737086252858620e-04,0.000000000000000e+00,0.000000000000000e+00,9.561988001959809e-07,1.278000000000000e-09,4.680000000000000e+03,6.000000000000000e-01,1,1.420000046491623e-01,1.420000046491623e-01,0.000000000000000e+00,0.000000000000000e+00
1.095245991468100e-01,4.945499986477170e+02,1.058620863360722e-01,-1.164267329751969e-04,1.105750050096360e-01,2.907086591460209e-03,6.373404746094761e-03,-1.441473836835567e-05,6.665156854460904e-03,0.000000000000000e+00,0.000000000000000e+00,0.000000000000000e+00,9.999999999998001e+01,3.721013431361843e-13,0.000000000000000e+00,9.801126132445094e-04,0.000000000000000e+00,0.000000000000000e+00,9.562402002799029e-07,1.278000000000000e-09,4.680000000000000e+03,6.000000000000000e-01,1,1.430000066757202e-01,1.430000066757202e-01,0.000000000000000e+00,0.000000000000000e+00
1.093968007921840e-01,4.943500012225246e+02,1.057604942424992e-01,-1.154195864051943e-04,1.104591232594765e-01,2.900776272523192e-03,6.367506350522001e-03,-1.429004403111715e-05,6.658373861099560e-03,0.000000000000000e+00,0.000000000000000e+00,0.000000000000000e+00,9.999999999998001e+01,3.706534965908705e-13,0.000000000000000e+00,9.865165057764932e-04,0.000000000000000e+00,0.000000000000000e+00,9.562815997469169e-07,1.278000000000000e-09,4.680000000000000e+03,6.000000000000000e-01,1,1.439999938011169e-01,1.439999938011169e-01,0.000000000000000e+00,0.000000000000000e+00
1.092690005331896e-01,4.941500008171000e+02,1.056589006350665e-01,-1.144124248273452e-04,1.103432397825221e-01,2.894465859553884e-03,6.361607867055167e-03,-1.416534783576428e-05,6.651590766662437e-03,0.000000000000000e+00,0.000000000000000e+00,0.000000000000000e+00,9.999999999998001e+01,3.692056284706843e-13,0.000000000000000e+00,9.929204937351404e-04,0.000000000000000e+00,0.000000000000000e+00,9.563229998308391e-07,1.278000000000000e-09,4.680000000000000e+03,6.000000000000000e-01,1,1.449999958276749e-01,1.449999958276749e-01,0.000000000000000e+00,0.000000000000000e+00
1.091412002741952e-01,4.939500004116754e+02,1.055573070276339e-01,-1.134052632494960e-04,1.102273563055677e-01,2.888155446584577e-03,6.355709383588333e-03,-1.404065164041142e-05,6.644807672225314e-03,0.000000000000000e+00,0.000000000000000e+00,0.000000000000000e+00,9.999999999998001e+01,3.677577603504979e-13,0.000000000000000e+00,9.993244816937875e-04,0.000000000000000e+00,0.000000000000000e+00,9.563643999147613e-07,1.278000000000000e-09,4.680000000000000e+03,6.000000000000000e-01,1,1.459999978542328e-01,1.459999978542328e-01,0.000000000000000e+00,0.000000000000000e+00
1.090134000152008e-01,4.937500000062508e+02,1.054557134202012e-01,-1.123981016716469e-04,1.101114728286133e-01,2.881845033615270e-03,6.349810900121499e-03,-1.391595544505856e-05,6.638024577788192e-03,0.000000000000000e+00,0.000000000000000e+00,0.000000000000000e+00,9.999999999998002e+01,3.663098922303116e-13,0.000000000000000e+00,1.005728469652435e-03,0.000000000000000e+00,0.000000000000000e+00,9.564057999986834e-07,1.278000000000000e-09,4.680000000000000e+03,6.000000000000000e-01,1,1.469999998807907e-01,1.469999998807907e-01,0.000000000000000e+00,0.000000000000000e+00
1.088855997562063e-01,4.935499996008263e+02,1.053541198127685e-01,-1.113909400937977e-04,1.099955893516590e-01,2.875534620645963e-03,6.343912416654666e-03,-1.379125924970570e-05,6.631241483351069e-03,0.000000000000000e+00,0.000000000000000e+00,0.000000000000000e+00,9.999999999998001e+01,3.648620241101254e-13,0.000000000000000e+00,1.012132457611082e-03,0.000000000000000e+00,0.000000000000000e+00,9.564472000826054e-07,1.278000000000000e-09,4.680000000000000e+03,6.000000000000000e-01,1,1.480000019073486e-01,1.480000019073486e-01,0.000000000000000e+00,0.000000000000000e+00
1.087577994972119e-01,4.933499991954017e+02,1.052525262053359e-01,-1.103837785159485e-04,1.098797058747046e-01,2.869224207676655e-03,6.338013933187833e-03,-1.366656305435283e-05,6.624458388913946e-03,0.000000000000000e+00,0.000000000000000e+00,0.000000000000000e+00,9.999999999998001e+01,3.634141559899391e-13,0.000000000000000e+00,1.018536445569729e-03,0.000000000000000e+00,0.000000000000000e+00,9.564886001665275e-07,1.278000000000000e-09,4.680000000000000e+03,6.000000000000000e-01,1,1.490000039339066e-01,1.490000039339066e-01,0.000000000000000e+00,0.000000000000000e+00
1.086299992382175e-01,4.931499987899771e+02,1.051509325979032e-01,-1.093766169380994e-04,1.097638223977502e-01,2.862913794707348e-03,6.332115449720998e-03,-1.354186685899997e-05,6.617675294476823e-03,0.000000000000000e+00,0.000000000000000e+00,0.000000000000000e+00,9.999999999998001e+01,3.619662878697528e-13,0.000000000000000e+00,1.024940433528377e-03,0.000000000000000e+00,0.000000000000000e+00,9.565300002504495e-07,1.278000000000000e-09,4.680000000000000e+03,6.000000000000000e-01,1,1.500000059604645e-01,1.500000059604645e-01,0.000000000000000e+00,0.000000000000000e+00
1.085022008835915e-01,4.929500013647847e+02,1.050493405043302e-01,-1.083694703680968e-04,1.096479406475906e-01,2.856603475770332e-03,6.326217054148238e-03,-1.341717252176145e-05,6.610892301115478e-03,0.000000000000000e+00,0.000000000000000e+00,0.000000000000000e+00,9.999999999998001e+01,3.605184413244390e-13,0.000000000000000e+00,1.031344326060360e-03,0.000000000000000e+00,0.000000000000000e+00,9.565713997174636e-07,1.278000000000000e-09,4.680000000000000e+03,6.000000000000000e-01,1,1.509999930858612e-01,1.509999930858612e-01,0.000000000000000e+00,0.000000000000000e+00
1.083744006245971e-01,4.927500009593602e+02,1.049477468968975e-01,-1.073623087902477e-04,1.095320571706363e-01,2.850293062801024e-03,6.320318570681405e-03,-1.329247632640859e-05,6.604109206678356e-03,0.000000000000000e+00,0.000000000000000e+00,0.000000000000000e+00,9.999999999998001e+01,3.590705732042527e-13,0.000000000000000e+00,1.037748314019008e-03,0.000000000000000e+00,0.000000000000000e+00,9.566127998013857e-07,1.278000000000000e-09,4.680000000000000e+03,6.000000000000000e-01,1,1.519999951124191e-01,1.519999951124191e-01,0.000000000000000e+00,0.000000000000000e+00
1.082466003656026e-01,4.925500005539356e+02,1.048461532894648e-01,-1.063551472123985e-04,1.094161736936819e-01,2.843982649831717e-03,6.314420087214571e-03,-1.316778013105573e-05,6.597326112241233e-03,0.000000000000000e+00,0.000000000000000e+00,0.000000000000000e+00,9.999999999998001e+01,3.576227050840665e-13,0.000000000000000e+00,1.044152301977655e-03,0.000000000000000e+00,0.000000000000000e+00,9.566541998853079e-07,1.278000000000000e-09,4.680000000000000e+03,6.000000000000000e-01,1,1.529999971389771e-01,1.529999971389771e-01,0.000000000000000e+00,0.000000000000000e+00
1.081188001066082e-01,4.923500001485110e+02,1.047445596820322e-01,-1.053479856345494e-04,1.093002902167275e-01,2.837672236862410e-03,6.308521603747737e-03,-1.304308393570286e-05,6.590543017804110e-03,0.000000000000000e+00,0.000000000000000e+00,0.000000000000000e+00,9.999999999998001e+01,3.561748369638802e-13,0.000000000000000e+00,1.050556289936302e-03,0.000000000000000e+00,0.000000000000000e+00,9.566955999692301e-07,1.278000000000000e-09,4.680000000000000e+03,6.000000000000000e-01,1,1.539999991655350e-01,1.539999991655350e-01,0.000000000000000e+00,0.000000000000000e+00
1.079909998476138e-01,4.921499997430864e+02,1.046429660745995e-01,-1.043408240567002e-04,1.091844067397731e-01,2.831361823893102e-03,6.302623120280903e-03,-1.291838774035000e-05,6.583759923366988e-03,0.000000000000000e+00,0.000000000000000e+00,0.000000000000000e+00,9.999999999998001e+01,3.547269688436939e-13,0.000000000000000e+00,1.056960277894949e-03,0.000000000000000e+00,0.000000000000000e+00,9.567370000531520e-07,1.278000000000000e-09,4.680000000000000e+03,6.000000000000000e-01,1,1.550000011920929e-01,1.550000011920929e-01,0.000000000000000e+00,0.000000000000000e+00
1.078631995886194e-01,4.919499993376618e+02,1.045413724671669e-01,-1.033336624788511e-04,1.090685232628187e-01,2.825051410923795e-03,6.296724636814069e-03,-1.279369154499714e-05,6.576976828929865e-03,0.000000000000000e+00,0.000000000000000e+00,0.000000000000000e+00,9.999999999998001e+01,3.532791007235076e-13,0.000000000000000e+00,1.063364265853597e-03,0.000000000000000e+00,0.000000000000000e+00,9.567784001370742e-07,1.278000000000000e-09,4.680000000000000e+03,6.000000000000000e-01,1,1.560000032186508e-01,1.560000032186508e-01,0.000000000000000e+00,0.000000000000000e+00
1.077353993296249e-01,4.917499989322372e+02,1.044397788597342e-01,-1.023265009010019e-04,1.089526397858643e-01,2.818740997954488e-03,6.290826153347235e-03,-1.266899534964428e-05,6.570193734492741e-03,0.000000000000000e+00,0.000000000000000e+00,0.000000000000000e+00,9.999999999998001e+01,3.518312326033213e-13,0.000000000000000e+00,1.069768253812244e-03,0.000000000000000e+00,0.000000000000000e+00,9.568198002209963e-07,1.278000000000000e-09,4.680000000000000e+03,6.000000000000000e-01,1,1.570000052452087e-01,1.570000052452087e-01,0.000000000000000e+00,0.000000000000000e+00
1.076075990706305e-01,4.915499985268127e+02,1.043381852523015e-01,-1.013193393231527e-04,1.088367563089099e-01,2.812430584985181e-03,6.284927669880400e-03,-1.254429915429141e-05,6.563410640055618e-03,0.000000000000000e+00,0.000000000000000e+00,0.000000000000000e+00,9.999999999998001e+01,3.503833644831351e-13,0.000000000000000e+00,1.076172241770891e-03,0.000000000000000e+00,0.000000000000000e+00,9.568612003049183e-07,1.278000000000000e-09,4.680000000000000e+03,6.000000000000000e-01,1,1.580000072717667e-01,1.580000072717667e-01,0.000000000000000e+00,0.000000000000000e+00
1.074798007160045e-01,4.913500011016204e+02,1.042365931587285e-01,-1.003121927531502e-04,1.087208745587504e-01,2.806120266048164e-03,6.279029274307642e-03,-1.241960481705289e-05,6.556627646694274e-03,0.000000000000000e+00,0.000000000000000e+00,0.000000000000000e+00,9.999999999998001e+01,3.489355179378213e-13,0.000000000000000e+00,1.082576134302875e-03,0.000000000000000e+00,0.000000000000000e+00,9.569025997719324e-07,1.278000000000000e-09,4.680000000000000e+03,6.000000000000000e-01,1,1.589999943971634e-01,1.589999943971634e-01,0.000000000000000e+00,0.000000000000000e+00
1.073520004570101e-01,4.911500006961957e+02,1.041349995512958e-01,-9.930503117530103e-05,1.086049910817960e-01,2.799809853078857e-03,6.273130790840808e-03,-1.229490862170003e-05,6.549844552257151e-03,0.000000000000000e+00,0.000000000000000e+00,0.000000000000000e+00,9.999999999998001e+01,3.474876498176350e-13,0.000000000000000e+00,1.088980122261522e-03,0.000000000000000e+00,0.000000000000000e+00,9.569439998558545e-07,1.278000000000000e-09,4.680000000000000e+03,6.000000000000000e-01,1,1.599999964237213e-01,1.599999964237213e-01,0.000000000000000e+00,0.000000000000000e+00
1.072242001980157e-01,4.909500002907787e+02,1.040297304892683e-01,-9.880568208201897e-05,1.084767898436545e-01,2.788567473021891e-03,6.267310091480754e-03,-1.223308444824616e-05,6.542604241994699e-03,0.000000000000000e+00,0.000000000000000e+00,0.000000000000000e+00,9.999999999998001e+01,3.402483299268417e-13,0.000000000000000e+00,1.095151133340219e-03,0.000000000000000e+00,0.000000000000000e+00,9.569853999397767e-07,1.278000000000000e-09,4.680000000000000e+03,6.000000000000000e-01,1,1.609999984502792e-01,1.609999984502792e-01,0.000000000000000e+00,0.000000000000000e+00
1.070963999390212e-01,4.907499998853616e+02,1.039244614140973e-01,-9.830633480466635e-05,1.083485885614649e-01,2.777325075328289e-03,6.261489392398854e-03,-1.217126049962165e-05,6.535363930097249e-03,0.000000000000000e+00,0.000000000000000e+00,0.000000000000000e+00,9.999999999998001e+01,3.330089893259084e-13,0.000000000000000e+00,1.101322143585793e-03,0.000000000000000e+00,0.000000000000000e+00,9.570268000236988e-07,1.278000000000000e-09,4.680000000000000e+03,6.000000000000000e-01,1,1.620000004768372e-01,1.620000004768372e-01,0.000000000000000e+00,0.000000000000000e+00
1.069685996800268e-01,4.905499994799445e+02,1.038191923389263e-01,-9.780698752731371e-05,1.082203872792753e-01,2.766082677634687e-03,6.255668693316956e-03,-1.210943655099713e-05,6.528123618199799e-03,0.000000000000000e+00,0.000000000000000e+00,0.000000000000000e+00,9.999999999998002e+01,3.257696487249749e-13,0.000000000000000e+00,1.107493153831368e-03,0.000000000000000e+00,0.000000000000000e+00,9.570682001076208e-07,1.278000000000000e-09,4.680000000000000e+03,6.000000000000000e-01,1,1.630000025033951e-01,1.630000025033951e-01,0.000000000000000e+00,0.000000000000000e+00
1.068407994210324e-01,4.903499990745274e+02,1.037139232637554e-01,-9.730764024996108e-05,1.080921859970856e-01,2.754840279941085e-03,6.249847994235056e-03,-1.204761260237262e-05,6.520883306302349e-03,0.000000000000000e+00,0.000000000000000e+00,0.000000000000000e+00,9.999999999998001e+01,3.185303081240415e-13,0.000000000000000e+00,1.113664164076943e-03,0.000000000000000e+00,0.000000000000000e+00,9.571096001915430e-07,1.278000000000000e-09,4.680000000000000e+03,6.000000000000000e-01,1,1.640000045299530e-01,1.640000045299530e-01,0.000000000000000e+00,0.000000000000000e+00
1.067129991620380e-01,4.901499986691103e+02,1.036086541885844e-01,-9.680829297260845e-05,1.079639847148960e-01,2.743597882247482e-03,6.244027295153156e-03,-1.198578865374811e-05,6.513642994404900e-03,0.000000000000000e+00,0.000000000000000e+00,0.000000000000000e+00,9.999999999998001e+01,3.112909675231081e-13,0.000000000000000e+00,1.119835174322518e-03,0.000000000000000e+00,0.000000000000000e+00,9.571510002754649e-07,1.278000000000000e-09,4.680000000000000e+03,6.000000000000000e-01,1,1.650000065565109e-01,1.650000065565109e-01,0.000000000000000e+00,0.000000000000000e+00
1.065852008074119e-01,4.899500012439255e+02,1.035033866820417e-01,-9.630895313609501e-05,1.078357853430505e-01,2.732355652078321e-03,6.238206682806256e-03,-1.192396562637035e-05,6.506402790396285e-03,0.000000000000000e+00,0.000000000000000e+00,0.000000000000000e+00,9.999999999998001e+01,3.040517347965373e-13,0.000000000000000e+00,1.126006092613060e-03,0.000000000000000e+00,0.000000000000000e+00,9.571923997424790e-07,1.278000000000000e-09,4.680000000000000e+03,6.000000000000000e-01,1,1.659999936819077e-01,1.659999936819077e-01,0.000000000000000e+00,0.000000000000000e+00
1.064574005484175e-01,4.897500008385084e+02,1.033981176068708e-01,-9.580960585874240e-05,1.077075840608609e-01,2.721113254384719e-03,6.232385983724357e-03,-1.186214167774584e-05,6.499162478498835e-03,0.000000000000000e+00,0.000000000000000e+00,0.000000000000000e+00,9.999999999998001e+01,2.968123941956039e-13,0.000000000000000e+00,1.132177102858635e-03,0.000000000000000e+00,0.000000000000000e+00,9.572337998264011e-07,1.278000000000000e-09,4.680000000000000e+03,6.000000000000000e-01,1,1.669999957084656e-01,1.669999957084656e-01,0.000000000000000e+00,0.000000000000000e+00
1.063296002894231e-01,4.895500004330913e+02,1.032928485316998e-01,-9.531025858138976e-05,1.075793827786713e-01,2.709870856691117e-03,6.226565284642457e-03,-1.180031772912132e-05,6.491922166601386e-03,0.000000000000000e+00,0.000000000000000e+00,0.000000000000000e+00,9.999999999998001e+01,2.895730535946705e-13,0.000000000000000e+00,1.138348113104210e-03,0.000000000000000e+00,0.000000000000000e+00,9.572751999103231e-07,1.278000000000000e-09,4.680000000000000e+03,6.000000000000000e-01,1,1.679999977350235e-01,1.679999977350235e-01,0.000000000000000e+00,0.000000000000000e+00
1.062018000304287e-01,4.893500000276742e+02,1.031875794565288e-01,-9.481091130403714e-05,1.074511814964817e-01,2.698628458997515e-03,6.220744585560557e-03,-1.173849378049681e-05,6.484681854703936e-03,0.000000000000000e+00,0.000000000000000e+00,0.000000000000000e+00,9.999999999998001e+01,2.823337129937371e-13,0.000000000000000e+00,1.144519123349785e-03,0.000000000000000e+00,0.000000000000000e+00,9.573165999942453e-07,1.278000000000000e-09,4.680000000000000e+03,6.000000000000000e-01,1,1.689999997615814e-01,1.689999997615814e-01,0.000000000000000e+00,0.000000000000000e+00
1.060739997714343e-01,4.891499996222572e+02,1.030823103813579e-01,-9.431156402668450e-05,1.073229802142920e-01,2.687386061303913e-03,6.214923886478658e-03,-1.167666983187230e-05,6.477441542806487e-03,0.000000000000000e+00,0.000000000000000e+00,0.000000000000000e+00,9.999999999998001e+01,2.750943723928036e-13,0.000000000000000e+00,1.150690133595359e-03,0.000000000000000e+00,0.000000000000000e+00,9.573580000781674e-07,1.278000000000000e-09,4.680000000000000e+03,6.000000000000000e-01,1,1.700000017881393e-01,1.700000017881393e-01,0.000000000000000e+00,0.000000000000000e+00
1.059461995124398e-01,4.889499992168401e+02,1.029770413061869e-01,-9.381221674933186e-05,1.071947789321024e-01,2.676143663610311e-03,6.209103187396758e-03,-1.161484588324778e-05,6.470201230909036e-03,0.000000000000000e+00,0.000000000000000e+00,0.000000000000000e+00,9.999999999997999e+01,2.678550317918702e-13,0.000000000000000e+00,1.156861143840934e-03,0.000000000000000e+00,0.000000000000000e+00,9.573994001620894e-07,1.278000000000000e-09,4.680000000000000e+03,6.000000000000000e-01,1,1.710000038146973e-01,1.710000038146973e-01,0.000000000000000e+00,0.000000000000000e+00
1.058183992534454e-01,4.887499988114230e+02,1.028717722310160e-01,-9.331286947197925e-05,1.070665776499128e-01,2.664901265916710e-03,6.203282488314860e-03,-1.155302193462327e-05,6.462960919011588e-03,0.000000000000000e+00,0.000000000000000e+00,0.000000000000000e+00,9.999999999998001e+01,2.606156911909368e-13,0.000000000000000e+00,1.163032154086509e-03,0.000000000000000e+00,0.000000000000000e+00,9.574408002460115e-07,1.278000000000000e-09,4.680000000000000e+03,6.000000000000001e-01,1,1.720000058412552e-01,1.720000058412552e-01,0.000000000000000e+00,0.000000000000000e+00
1.056906008988194e-01,4.885500013862381e+02,1.027665047244733e-01,-9.281352963546580e-05,1.069383782780673e-01,2.653659035747548e-03,6.197461875967959e-03,-1.149119890724551e-05,6.455720715002972e-03,0.000000000000000e+00,0.000000000000000e+00,0.000000000000000e+00,9.999999999997999e+01,2.533764584643660e-13,0.000000000000000e+00,1.169203072377052e-03,0.000000000000000e+00,0.000000000000000e+00,9.574821997130256e-07,1.278000000000000e-09,4.680000000000000e+03,6.000000000000000e-01,1,1.729999929666519e-01,1.729999929666519e-01,0.000000000000000e+00,0.000000000000000e+00
1.055628006398250e-01,4.883500009808211e+02,1.026612356493023e-01,-9.231418235811319e-05,1.068101769958777e-01,2.642416638053945e-03,6.191641176886059e-03,-1.142937495862100e-05,6.448480403105524e-03,0.000000000000000e+00,0.000000000000000e+00,0.000000000000000e+00,9.999999999998001e+01,2.461371178634326e-13,0.000000000000000e+00,1.175374082622626e-03,0.000000000000000e+00,0.000000000000000e+00,9.575235997969478e-07,1.278000000000000e-09,4.680000000000000e+03,6.000000000000000e-01,1,1.739999949932098e-01,1.739999949932098e-01,0.000000000000000e+00,0.000000000000000e+00
1.054350003808305e-01,4.881500005754040e+02,1.025559665741314e-01,-9.181483508076055e-05,1.066819757136880e-01,2.631174240360344e-03,6.185820477804159e-03,-1.136755100999648e-05,6.441240091208073e-03,0.000000000000000e+00,0.000000000000000e+00,0.000000000000000e+00,9.999999999997999e+01,2.388977772624992e-13,0.000000000000000e+00,1.181545092868201e-03,0.000000000000000e+00,0.000000000000000e+00,9.575649998808697e-07,1.278000000000000e-09,4.680000000000000e+03,6.000000000000000e-01,1,1.749999970197678e-01,1.749999970197678e-01,0.000000000000000e+00,0.000000000000000e+00
1.053072001218361e-01,4.879500001699869e+02,1.024506974989604e-01,-9.131548780340793e-05,1.065537744314984e-01,2.619931842666742e-03,6.179999778722261e-03,-1.130572706137197e-05,6.433999779310624e-03,0.000000000000000e+00,0.000000000000000e+00,0.000000000000000e+00,9.999999999998001e+01,2.316584366615658e-13,0.000000000000000e+00,1.187716103113776e-03,0.000000000000000e+00,0.000000000000000e+00,9.576063999647921e-07,1.278000000000000e-09,4.680000000000000e+03,6.000000000000000e-01,1,1.759999990463257e-01,1.759999990463257e-01,0.000000000000000e+00,0.000000000000000e+00
1.051793998628417e-01,4.877499997645698e+02,1.023454284237895e-01,-9.081614052605530e-05,1.064255731493088e-01,2.608689444973140e-03,6.174179079640361e-03,-1.124390311274746e-05,6.426759467413173e-03,0.000000000000000e+00,0.000000000000000e+00,0.000000000000000e+00,9.999999999998001e+01,2.244190960606324e-13,0.000000000000000e+00,1.193887113359351e-03,0.000000000000000e+00,0.000000000000000e+00,9.576478000487140e-07,1.278000000000000e-09,4.680000000000000e+03,6.000000000000000e-01,1,1.770000010728836e-01,1.770000010728836e-01,0.000000000000000e+00,0.000000000000000e+00
1.050515996038473e-01,4.875499993591527e+02,1.022401593486185e-01,-9.031679324870268e-05,1.062973718671192e-01,2.597447047279538e-03,6.168358380558462e-03,-1.118207916412295e-05,6.419519155515724e-03,0.000000000000000e+00,0.000000000000000e+00,0.000000000000000e+00,9.999999999998001e+01,2.171797554596990e-13,0.000000000000000e+00,1.200058123604926e-03,0.000000000000000e+00,0.000000000000000e+00,9.576892001326362e-07,1.278000000000000e-09,4.680000000000000e+03,6.000000000000000e-01,1,1.780000030994415e-01,1.780000030994415e-01,0.000000000000000e+00,0.000000000000000e+00
1.049237993448529e-01,4.873499989537356e+02,1.021348902734475e-01,-8.981744597135004e-05,1.061691705849296e-01,2.586204649585935e-03,6.162537681476562e-03,-1.112025521549843e-05,6.412278843618275e-03,0.000000000000000e+00,0.000000000000000e+00,0.000000000000000e+00,9.999999999998001e+01,2.099404148587656e-13,0.000000000000000e+00,1.206229133850500e-03,0.000000000000000e+00,0.000000000000000e+00,9.577306002165582e-07,1.278000000000000e-09,4.680000000000000e+03,6.000000000000000e-01,1,1.790000051259995e-01,1.790000051259995e-01,0.000000000000000e+00,0.000000000000000e+00
1.047959990858584e-01,4.871499985483185e+02,1.020296211982766e-01,-8.931809869399741e-05,1.060409693027400e-01,2.574962251892333e-03,6.156716982394663e-03,-1.105843126687392e-05,6.405038531720825e-03,0.000000000000000e+00,0.000000000000000e+00,0.000000000000000e+00,9.999999999998001e+01,2.027010742578321e-13,0.000000000000000e+00,1.212400144096075e-03,0.000000000000000e+00,0.000000000000000e+00,9.577720003004803e-07,1.278000000000000e-09,4.680000000000000e+03,6.000000000000000e-01,1,1.800000071525574e-01,1.800000071525574e-01,0.000000000000000e+00,0.000000000000000e+00
1.046682007312324e-01,4.869500011231337e+02,1.019243536917339e-01,-8.881875885748397e-05,1.059127699308944e-01,2.563720021723172e-03,6.150896370047763e-03,-1.099660823949616e-05,6.397798327712211e-03,0.000000000000000e+00,0.000000000000000e+00,0.000000000000000e+00,9.999999999998001e+01,1.954618415312613e-13,0.000000000000000e+00,1.218571062386618e-03,0.000000000000000e+00,0.000000000000000e+00,9.578133997674944e-07,1.278000000000000e-09,4.680000000000000e+03,6.000000000000000e-01,1,1.809999942779541e-01,1.809999942779541e-01,0.000000000000000e+00,0.000000000000000e+00
1.045404004722380e-01,4.867500007177166e+02,1.018190846165629e-01,-8.831941158013135e-05,1.057845686487048e-01,2.552477624029570e-03,6.145075670965863e-03,-1.093478429087165e-05,6.390558015814760e-03,0.000000000000000e+00,0.000000000000000e+00,0.000000000000000e+00,9.999999999998001e+01,1.882225009303279e-13,0.000000000000000e+00,1.224742072632193e-03,0.000000000000000e+00,0.000000000000000e+00,9.578547998514164e-07,1.278000000000000e-09,4.680000000000000e+03,6.000000000000000e-01,1,1.819999963045120e-01,1.819999963045120e-01,0.000000000000000e+00,0.000000000000000e+00
1.044126002132436e-01,4.865500003122995e+02,1.017138155413920e-01,-8.782006430277871e-05,1.056563673665152e-01,2.541235226335968e-03,6.139254971883964e-03,-1.087296034224713e-05,6.383317703917311e-03,0.000000000000000e+00,0.000000000000000e+00,0.000000000000000e+00,9.999999999998001e+01,1.809831603293945e-13,0.000000000000000e+00,1.230913082877768e-03,0.000000000000000e+00,0.000000000000000e+00,9.578961999353385e-07,1.278000000000000e-09,4.680000000000000e+03,6.000000000000000e-01,1,1.829999983310699e-01,1.829999983310699e-01,0.000000000000000e+00,0.000000000000000e+00
1.042847999542491e-01,4.863499999068824e+02,1.016085464662210e-01,-8.732071702542609e-05,1.055281660843256e-01,2.529992828642366e-03,6.133434272802064e-03,-1.081113639362262e-05,6.376077392019862e-03,0.000000000000000e+00,0.000000000000000e+00,0.000000000000000e+00,9.999999999998001e+01,1.737438197284611e-13,0.000000000000000e+00,1.237084093123342e-03,0.000000000000000e+00,0.000000000000000e+00,9.579376000192607e-07,1.278000000000000e-09,4.680000000000000e+03,6.000000000000000e-01,1,1.840000003576279e-01,1.840000003576279e-01,0.000000000000000e+00,0.000000000000000e+00
1.041569996952547e-01,4.861499995014653e+02,1.015032773910501e-01,-8.682136974807347e-05,1.053999648021360e-01,2.518750430948764e-03,6.127613573720165e-03,-1.074931244499811e-05,6.368837080122411e-03,0.000000000000000e+00,0.000000000000000e+00,0.000000000000000e+00,9.999999999998001e+01,1.665044791275277e-13,0.000000000000000e+00,1.243255103368917e-03,0.000000000000000e+00,0.000000000000000e+00,9.579790001031826e-07,1.278000000000000e-09,4.680000000000000e+03,6.000000000000000e-01,1,1.850000023841858e-01,1.850000023841858e-01,0.000000000000000e+00,0.000000000000000e+00
1.040291994362603e-01,4.859499990960483e+02,1.013980083158791e-01,-8.632202247072083e-05,1.052717635199464e-01,2.507508033255162e-03,6.121792874638265e-03,-1.068748849637360e-05,6.361596768224962e-03,0.000000000000000e+00,0.000000000000000e+00,0.000000000000000e+00,9.999999999998001e+01,1.592651385265943e-13,0.000000000000000e+00,1.249426113614492e-03,0.000000000000000e+00,0.000000000000000e+00,9.580204001871048e-07,1.278000000000000e-09,4.680000000000000e+03,6.000000000000000e-01,1,1.860000044107437e-01,1.860000044107437e-01,0.000000000000000e+00,0.000000000000000e+00
1.039013991772659e-01,4.857499986906312e+02,1.012927392407081e-01,-8.582267519336821e-05,1.051435622377567e-01,2.496265635561560e-03,6.115972175556366e-03,-1.062566454774908e-05,6.354356456327512e-03,0.000000000000000e+00,0.000000000000000e+00,0.000000000000000e+00,9.999999999998001e+01,1.520257979256609e-13,0.000000000000000e+00,1.255597123860067e-03,0.000000000000000e+00,0.000000000000000e+00,9.580618002710269e-07,1.278000000000000e-09,4.680000000000000e+03,6.000000000000000e-01,1,1.870000064373016e-01,1.870000064373016e-01,0.000000000000000e+00,0.000000000000000e+00
1.037736008226399e-01,4.855500012654463e+02,1.011874717341655e-01,-8.532333535685476e-05,1.050153628659112e-01,2.485023405392399e-03,6.110151563209465e-03,-1.056384152037132e-05,6.347116252318898e-03,0.000000000000000e+00,0.000000000000000e+00,0.000000000000000e+00,9.999999999998002e+01,1.447865651990901e-13,0.000000000000000e+00,1.261768042150609e-03,0.000000000000000e+00,0.000000000000000e+00,9.581031997380410e-07,1.278000000000000e-09,4.680000000000000e+03,6.000000000000000e-01,1,1.879999935626984e-01,1.879999935626984e-01,0.000000000000000e+00,0.000000000000000e+00
1.036458005636454e-01,4.853500008600292e+02,1.010822026589945e-01,-8.482398807950214e-05,1.048871615837216e-01,2.473781007698797e-03,6.104330864127566e-03,-1.050201757174681e-05,6.339875940421449e-03,0.000000000000000e+00,0.000000000000000e+00,0.000000000000000e+00,9.999999999998001e+01,1.375472245981567e-13,0.000000000000000e+00,1.267939052396184e-03,0.000000000000000e+00,0.000000000000000e+00,9.581445998219630e-07,1.278000000000000e-09,4.680000000000000e+03,6.000000000000000e-01,1,1.889999955892563e-01,1.889999955892563e-01,0.000000000000000e+00,0.000000000000000e+00
1.035180003046510e-01,4.851500004546122e+02,1.009769335838235e-01,-8.432464080214952e-05,1.047589603015320e-01,2.462538610005195e-03,6.098510165045667e-03,-1.044019362312230e-05,6.332635628523998e-03,0.000000000000000e+00,0.000000000000000e+00,0.000000000000000e+00,9.999999999998001e+01,1.303078839972232e-13,0.000000000000000e+00,1.274110062641759e-03,0.000000000000000e+00,0.000000000000000e+00,9.581859999058851e-07,1.278000000000000e-09,4.680000000000000e+03,6.000000000000000e-01,1,1.899999976158142e-01,1.899999976158142e-01,0.000000000000000e+00,0.000000000000000e+00
1.033902000456566e-01,4.849500000491951e+02,1.008716645086526e-01,-8.382529352479688e-05,1.046307590193424e-01,2.451296212311593e-03,6.092689465963768e-03,-1.037836967449778e-05,6.325395316626549e-03,0.000000000000000e+00,0.000000000000000e+00,0.000000000000000e+00,9.999999999998002e+01,1.230685433962898e-13,0.000000000000000e+00,1.280281072887334e-03,0.000000000000000e+00,0.000000000000000e+00,9.582273999898073e-07,1.278000000000000e-09,4.680000000000000e+03,6.000000000000000e-01,1,1.909999996423721e-01,1.909999996423721e-01,0.000000000000000e+00,0.000000000000000e+00
1.032623997866622e-01,4.847499996437780e+02,1.007663954334816e-01,-8.332594624744426e-05,1.045025577371527e-01,2.440053814617990e-03,6.086868766881868e-03,-1.031654572587327e-05,6.318155004729100e-03,0.000000000000000e+00,0.000000000000000e+00,0.000000000000000e+00,9.999999999998001e+01,1.158292027953564e-13,0.000000000000000e+00,1.286452083132909e-03,0.000000000000000e+00,0.000000000000000e+00,9.582688000737295e-07,1.278000000000000e-09,4.680000000000000e+03,6.000000000000000e-01,1,1.920000016689301e-01,1.920000016689301e-01,0.000000000000000e+00,0.000000000000000e+00
1.031345995276678e-01,4.845499992383609e+02,1.006611263583107e-01,-8.282659897009162e-05,1.043743564549631e-01,2.428811416924389e-03,6.081048067799968e-03,-1.025472177724876e-05,6.310914692831649e-03,0.000000000000000e+00,0.000000000000000e+00,0.000000000000000e+00,9.999999999998001e+01,1.085898621944230e-13,0.000000000000000e+00,1.292623093378483e-03,0.000000000000000e+00,0.000000000000000e+00,9.583102001576514e-07,1.278000000000000e-09,4.680000000000000e+03,6.000000000000000e-01,1,1.930000036954880e-01,1.930000036954880e-01,0.000000000000000e+00,0.000000000000000e+00
1.030067992686733e-01,4.843499988329439e+02,1.005558572831397e-01,-8.232725169273900e-05,1.042461551727735e-01,2.417569019230787e-03,6.075227368718069e-03,-1.019289782862424e-05,6.303674380934200e-03,0.000000000000000e+00,0.000000000000000e+00,0.000000000000000e+00,9.999999999998002e+01,1.013505215934896e-13,0.000000000000000e+00,1.298794103624058e-03,0.000000000000000e+00,0.000000000000000e+00,9.583516002415736e-07,1.278000000000000e-09,4.680000000000000e+03,6.000000000000000e-01,1,1.940000057220459e-01,1.940000057220459e-01,0.000000000000000e+00,0.000000000000000e+00
1.028790009140473e-01,4.841500014077590e+02,1.004505897765970e-01,-8.182791185622557e-05,1.041179558009280e-01,2.406326789061625e-03,6.069406756371168e-03,-1.013107480124649e-05,6.296434176925586e-03,0.000000000000000e+00,0.000000000000000e+00,0.000000000000000e+00,9.999999999998001e+01,9.411128886691882e-14,0.000000000000000e+00,1.304965021914601e-03,0.000000000000000e+00,0.000000000000000e+00,9.583929997085877e-07,1.278000000000000e-09,4.680000000000000e+03,6.000000000000000e-01,1,1.949999928474426e-01,1.949999928474426e-01,0.000000000000000e+00,0.000000000000000e+00
1.027512006550529e-01,4.839500010023419e+02,1.003453207014261e-01,-8.132856457887294e-05,1.039897545187384e-01,2.395084391368023e-03,6.063586057289269e-03,-1.006925085262197e-05,6.289193865028136e-03,0.000000000000000e+00,0.000000000000000e+00,0.000000000000000e+00,9.999999999998001e+01,8.687194826598537e-14,0.000000000000000e+00,1.311136032160176e-03,0.000000000000000e+00,0.000000000000000e+00,9.584343997925096e-07,1.278000000000000e-09,4.680000000000000e+03,6.000000000000000e-01,1,1.959999948740005e-01,1.959999948740005e-01,0.000000000000000e+00,0.000000000000000e+00
1.026234003960585e-01,4.837500005969248e+02,1.002400516262551e-01,-8.082921730152031e-05,1.038615532365487e-01,2.383841993674421e-03,6.057765358207370e-03,-1.000742690399746e-05,6.281953553130686e-03,0.000000000000000e+00,0.000000000000000e+00,0.000000000000000e+00,9.999999999998001e+01,7.963260766505199e-14,0.000000000000000e+00,1.317307042405750e-03,0.000000000000000e+00,0.000000000000000e+00,9.584757998764318e-07,1.278000000000000e-09,4.680000000000000e+03,6.000000000000000e-01,1,1.969999969005585e-01,1.969999969005585e-01,0.000000000000000e+00,0.000000000000000e+00
1.024956001370640e-01,4.835500001915078e+02,1.001347825510842e-01,-8.032987002416768e-05,1.037333519543591e-01,2.372599595980819e-03,6.051944659125470e-03,-9.945602955372946e-06,6.274713241233236e-03,0.000000000000000e+00,0.000000000000000e+00,0.000000000000000e+00,9.999999999998001e+01,7.239326706411858e-14,0.000000000000000e+00,1.323478052651325e-03,0.000000000000000e+00,0.000000000000000e+00,9.585171999603539e-07,1.278000000000000e-09,4.680000000000000e+03,6.000000000000000e-01,1,1.979999989271164e-01,1.979999989271164e-01,0.000000000000000e+00,0.000000000000000e+00
1.023677998780696e-01,4.833499997860907e+02,1.000295134759132e-01,-7.983052274681505e-05,1.036051506721695e-01,2.361357198287217e-03,6.046123960043571e-03,-9.883779006748433e-06,6.267472929335787e-03,0.000000000000000e+00,0.000000000000000e+00,0.000000000000000e+00,9.999999999998001e+01,6.515392646318513e-14,0.000000000000000e+00,1.329649062896900e-03,0.000000000000000e+00,0.000000000000000e+00,9.585586000442761e-07,1.278000000000000e-09,4.680000000000000e+03,6.000000000000000e-01,1,1.990000009536743e-01,1.990000009536743e-01,0.000000000000000e+00,0.000000000000000e+00
1.022399996190752e-01,4.831499993806735e+02,9.992424438556881e-02,-7.933117671533535e-05,1.034769493736412e-01,2.350114791145891e-03,6.040303260607224e-03,-9.821955212374853e-06,6.260232617011754e-03,0.000000000000000e+00,0.000000000000000e+00,0.000000000000000e+00,9.999999999997999e+01,5.791460312446635e-14,0.000000000000000e+00,1.335820072441721e-03,0.000000000000000e+00,0.000000000000000e+00,9.586000001281980e-07,1.278000000000000e-09,4.679999999999999e+03,6.000000000000000e-01,1,2.000000029802322e-01,2.000000029802322e-01,0.000000000000000e+00,0.000000000000000e+00
1.021121993600817e-01,4.829499989752660e+02,9.981388463023980e-02,-7.924981976927771e-05,1.033432664670642e-01,2.335702682363456e-03,6.034363644392442e-03,-9.811882447624879e-06,6.252849186672099e-03,0.000000000000000e+00,0.000000000000000e+00,0.000000000000000e+00,9.999999999998002e+01,5.646673500427595e-14,0.000000000000000e+00,1.341755979684586e-03,0.000000000000000e+00,0.000000000000000e+00,9.586414002121179e-07,1.278000000000000e-09,4.680000000000001e+03,6.000000000000000e-01,1,2.010000050067902e-01,2.010000050067902e-01,0.000000000000000e+00,0.000000000000000e+00
1.019843991010882e-01,4.827499985698584e+02,9.970352487491076e-02,-7.916846282322008e-05,1.032095835604872e-01,2.321290573581019e-03,6.028424028177661e-03,-9.801809682874904e-06,6.245465756332443e-03,0.000000000000000e+00,0.000000000000000e+00,0.000000000000000e+00,9.999999999998001e+01,5.501886688408554e-14,0.000000000000000e+00,1.347691886927451e-03,0.000000000000000e+00,0.000000000000000e+00,9.586828002960375e-07,1.278000000000000e-09,4.680000000000000e+03,6.000000000000001e-01,1,2.020000070333481e-01,2.020000070333481e-01,0.000000000000000e+00,0.000000000000000e+00
1.018566007464631e-01,4.825500011446831e+02,9.959316676406690e-02,-7.908710708947296e-05,1.030759026459367e-01,2.306878679555304e-03,6.022484500469879e-03,-9.791737068220516e-06,6.238082436014250e-03,0.000000000000000e+00,0.000000000000000e+00,0.000000000000000e+00,9.999999999998002e+01,5.357102033876766e-14,0.000000000000000e+00,1.353627705718585e-03,0.000000000000000e+00,0.000000000000000e+00,9.587241997630492e-07,1.278000000000000e-09,4.680000000000000e+03,6.000000000000000e-01,1,2.029999941587448e-01,2.029999941587448e-01,0.000000000000000e+00,0.000000000000000e+00
1.017288004874696e-01,4.823500007392755e+02,9.948280700873786e-02,-7.900575014341533e-05,1.029422197393596e-01,2.292466570772867e-03,6.016544884255097e-03,-9.781664303470539e-06,6.230699005674593e-03,0.000000000000000e+00,0.000000000000000e+00,0.000000000000000e+00,9.999999999998001e+01,5.212315221857726e-14,0.000000000000000e+00,1.359563612961450e-03,0.000000000000000e+00,0.000000000000000e+00,9.587655998469689e-07,1.278000000000000e-09,4.680000000000000e+03,6.000000000000000e-01,1,2.039999961853027e-01,2.039999961853027e-01,0.000000000000000e+00,0.000000000000000e+00
1.016010002284762e-01,4.821500003338679e+02,9.937244725340882e-02,-7.892439319735768e-05,1.028085368327826e-01,2.278054461990431e-03,6.010605268040315e-03,-9.771591538720564e-06,6.223315575334938e-03,0.000000000000000e+00,0.000000000000000e+00,0.000000000000000e+00,9.999999999998001e+01,5.067528409838685e-14,0.000000000000000e+00,1.365499520204315e-03,0.000000000000000e+00,0.000000000000000e+00,9.588069999308885e-07,1.278000000000000e-09,4.680000000000000e+03,6.000000000000000e-01,1,2.049999982118607e-01,2.049999982118607e-01,0.000000000000000e+00,0.000000000000000e+00
1.014731999694826e-01,4.819499999284603e+02,9.926208749807978e-02,-7.884303625130005e-05,1.026748539262056e-01,2.263642353207996e-03,6.004665651825533e-03,-9.761518773970590e-06,6.215932144995282e-03,0.000000000000000e+00,0.000000000000000e+00,0.000000000000000e+00,9.999999999998001e+01,4.922741597819645e-14,0.000000000000000e+00,1.371435427447180e-03,0.000000000000000e+00,0.000000000000000e+00,9.588484000148083e-07,1.278000000000000e-09,4.680000000000000e+03,6.000000000000000e-01,1,2.060000002384186e-01,2.060000002384186e-01,0.000000000000000e+00,0.000000000000000e+00
1.013453997104891e-01,4.817499995230527e+02,9.915172774275074e-02,-7.876167930524241e-05,1.025411710196286e-01,2.249230244425559e-03,5.998726035610752e-03,-9.751446009220615e-06,6.208548714655626e-03,0.000000000000000e+00,0.000000000000000e+00,0.000000000000000e+00,9.999999999998001e+01,4.777954785800605e-14,0.000000000000000e+00,1.377371334690045e-03,0.000000000000000e+00,0.000000000000000e+00,9.588898000987279e-07,1.278000000000000e-09,4.680000000000000e+03,6.000000000000000e-01,1,2.070000022649765e-01,2.070000022649765e-01,0.000000000000000e+00,0.000000000000000e+00
1.012175994514957e-01,4.815499991176451e+02,9.904136798742172e-02,-7.868032235918478e-05,1.024074881130515e-01,2.234818135643123e-03,5.992786419395970e-03,-9.741373244470640e-06,6.201165284315970e-03,0.000000000000000e+00,0.000000000000000e+00,0.000000000000000e+00,9.999999999997999e+01,4.633167973781564e-14,0.000000000000000e+00,1.383307241932910e-03,0.000000000000000e+00,0.000000000000000e+00,9.589312001826476e-07,1.278000000000000e-09,4.680000000000000e+03,6.000000000000000e-01,1,2.080000042915344e-01,2.080000042915344e-01,0.000000000000000e+00,0.000000000000000e+00
1.010897991925022e-01,4.813499987122376e+02,9.893100823209268e-02,-7.859896541312714e-05,1.022738052064745e-01,2.220406026860687e-03,5.986846803181189e-03,-9.731300479720663e-06,6.193781853976314e-03,0.000000000000000e+00,0.000000000000000e+00,0.000000000000000e+00,9.999999999998001e+01,4.488381161762524e-14,0.000000000000000e+00,1.389243149175776e-03,0.000000000000000e+00,0.000000000000000e+00,9.589726002665674e-07,1.278000000000000e-09,4.680000000000000e+03,6.000000000000000e-01,1,2.090000063180923e-01,2.090000063180923e-01,0.000000000000000e+00,0.000000000000000e+00
1.009620008378771e-01,4.811500012870621e+02,9.882065012124880e-02,-7.851760967938001e-05,1.021401242919240e-01,2.205994132834972e-03,5.980907275473406e-03,-9.721227865066275e-06,6.186398533658120e-03,0.000000000000000e+00,0.000000000000000e+00,0.000000000000000e+00,9.999999999997999e+01,4.343596507230737e-14,0.000000000000000e+00,1.395178967966909e-03,0.000000000000000e+00,0.000000000000000e+00,9.590139997335789e-07,1.278000000000000e-09,4.680000000000000e+03,6.000000000000000e-01,1,2.099999934434891e-01,2.099999934434891e-01,0.000000000000000e+00,0.000000000000000e+00
1.008342005788836e-01,4.809500008816545e+02,9.871029036591977e-02,-7.843625273332237e-05,1.020064413853470e-01,2.191582024052536e-03,5.974967659258625e-03,-9.711155100316300e-06,6.179015103318464e-03,0.000000000000000e+00,0.000000000000000e+00,0.000000000000000e+00,9.999999999998001e+01,4.198809695211696e-14,0.000000000000000e+00,1.401114875209774e-03,0.000000000000000e+00,0.000000000000000e+00,9.590553998174985e-07,1.278000000000000e-09,4.680000000000000e+03,6.000000000000000e-01,1,2.109999954700470e-01,2.109999954700470e-01,0.000000000000000e+00,0.000000000000000e+00
1.007064003198901e-01,4.807500004762470e+02,9.859993061059075e-02,-7.835489578726475e-05,1.018727584787699e-01,2.177169915270100e-03,5.969028043043843e-03,-9.701082335566326e-06,6.171631672978809e-03,0.000000000000000e+00,0.000000000000000e+00,0.000000000000000e+00,9.999999999998001e+01,4.054022883192656e-14,0.000000000000000e+00,1.407050782452640e-03,0.000000000000000e+00,0.000000000000000e+00,9.590967999014184e-07,1.278000000000000e-09,4.680000000000000e+03,6.000000000000000e-01,1,2.119999974966049e-01,2.119999974966049e-01,0.000000000000000e+00,0.000000000000000e+00
1.005786000608966e-01,4.805500000708394e+02,9.848957085526169e-02,-7.827353884120710e-05,1.017390755721929e-01,2.162757806487664e-03,5.963088426829062e-03,-9.691009570816349e-06,6.164248242639153e-03,0.000000000000000e+00,0.000000000000000e+00,0.000000000000000e+00,9.999999999998001e+01,3.909236071173616e-14,0.000000000000000e+00,1.412986689695505e-03,0.000000000000000e+00,0.000000000000000e+00,9.591381999853380e-07,1.278000000000000e-09,4.680000000000000e+03,6.000000000000000e-01,1,2.129999995231628e-01,2.129999995231628e-01,0.000000000000000e+00,0.000000000000000e+00
1.004507998019031e-01,4.803499996654318e+02,9.837921109993267e-02,-7.819218189514947e-05,1.016053926656159e-01,2.148345697705227e-03,5.957148810614279e-03,-9.680936806066374e-06,6.156864812299497e-03,0.000000000000000e+00,0.000000000000000e+00,0.000000000000000e+00,9.999999999997999e+01,3.764449259154575e-14,0.000000000000000e+00,1.418922596938370e-03,0.000000000000000e+00,0.000000000000000e+00,9.591796000692578e-07,1.278000000000000e-09,4.680000000000000e+03,6.000000000000000e-01,1,2.140000015497208e-01,2.140000015497208e-01,0.000000000000000e+00,0.000000000000000e+00
1.003229995429096e-01,4.801499992600243e+02,9.826885134460364e-02,-7.811082494909184e-05,1.014717097590389e-01,2.133933588922791e-03,5.951209194399499e-03,-9.670864041316399e-06,6.149481381959842e-03,0.000000000000000e+00,0.000000000000000e+00,0.000000000000000e+00,9.999999999998001e+01,3.619662447135535e-14,0.000000000000000e+00,1.424858504181235e-03,0.000000000000000e+00,0.000000000000000e+00,9.592210001531774e-07,1.278000000000000e-09,4.680000000000000e+03,6.000000000000000e-01,1,2.150000035762787e-01,2.150000035762787e-01,0.000000000000000e+00,0.000000000000000e+00
1.001951992839161e-01,4.799499988546167e+02,9.815849158927462e-02,-7.802946800303420e-05,1.013380268524619e-01,2.119521480140355e-03,5.945269578184717e-03,-9.660791276566425e-06,6.142097951620186e-03,0.000000000000000e+00,0.000000000000000e+00,0.000000000000000e+00,9.999999999998001e+01,3.474875635116495e-14,0.000000000000000e+00,1.430794411424100e-03,0.000000000000000e+00,0.000000000000000e+00,9.592624002370973e-07,1.278000000000000e-09,4.680000000000000e+03,6.000000000000000e-01,1,2.160000056028366e-01,2.160000056028366e-01,0.000000000000000e+00,0.000000000000000e+00
1.000674009292910e-01,4.797500014294414e+02,9.804813347843075e-02,-7.794811226928707e-05,1.012043459379113e-01,2.105109586114640e-03,5.939330050476935e-03,-9.650718661912036e-06,6.134714631301993e-03,0.000000000000000e+00,0.000000000000000e+00,0.000000000000000e+00,9.999999999998002e+01,3.330090980584708e-14,0.000000000000000e+00,1.436730230215234e-03,0.000000000000000e+00,0.000000000000000e+00,9.593037997041090e-07,1.278000000000000e-09,4.680000000000000e+03,6.000000000000001e-01,1,2.169999927282333e-01,2.169999927282333e-01,0.000000000000000e+00,0.000000000000000e+00
9.993960067029756e-02,4.795500010240338e+02,9.793777372310171e-02,-7.786675532322945e-05,1.010706630313343e-01,2.090697477332204e-03,5.933390434262153e-03,-9.640645897162062e-06,6.127331200962337e-03,0.000000000000000e+00,0.000000000000000e+00,0.000000000000000e+00,9.999999999998002e+01,3.185304168565667e-14,0.000000000000000e+00,1.442666137458099e-03,0.000000000000000e+00,0.000000000000000e+00,9.593451997880287e-07,1.278000000000000e-09,4.680000000000000e+03,6.000000000000001e-01,1,2.179999947547913e-01,2.179999947547913e-01,0.000000000000000e+00,0.000000000000000e+00
9.981180041130405e-02,4.793500006186262e+02,9.782741396777267e-02,-7.778539837717180e-05,1.009369801247573e-01,2.076285368549768e-03,5.927450818047372e-03,-9.630573132412087e-06,6.119947770622682e-03,0.000000000000000e+00,0.000000000000000e+00,0.000000000000000e+00,9.999999999998002e+01,3.040517356546627e-14,0.000000000000000e+00,1.448602044700965e-03,0.000000000000000e+00,0.000000000000000e+00,9.593865998719483e-07,1.278000000000000e-09,4.680000000000000e+03,6.000000000000000e-01,1,2.189999967813492e-01,2.189999967813492e-01,0.000000000000000e+00,0.000000000000000e+00
9.968400015231058e-02,4.791500002132186e+02,9.771705421244364e-02,-7.770404143111415e-05,1.008032972181803e-01,2.061873259767331e-03,5.921511201832590e-03,-9.620500367662110e-06,6.112564340283025e-03,0.000000000000000e+00,0.000000000000000e+00,0.000000000000000e+00,9.999999999998001e+01,2.895730544527587e-14,0.000000000000000e+00,1.454537951943829e-03,0.000000000000000e+00,0.000000000000000e+00,9.594279999558679e-07,1.278000000000000e-09,4.680000000000000e+03,6.000000000000000e-01,1,2.199999988079071e-01,2.199999988079071e-01,0.000000000000000e+00,0.000000000000000e+00
9.955619989331707e-02,4.789499998078110e+02,9.760669445711459e-02,-7.762268448505654e-05,1.006696143116032e-01,2.047461150984896e-03,5.915571585617809e-03,-9.610427602912135e-06,6.105180909943369e-03,0.000000000000000e+00,0.000000000000000e+00,0.000000000000000e+00,9.999999999998001e+01,2.750943732508546e-14,0.000000000000000e+00,1.460473859186695e-03,0.000000000000000e+00,0.000000000000000e+00,9.594694000397877e-07,1.278000000000000e-09,4.680000000000000e+03,6.000000000000000e-01,1,2.210000008344650e-01,2.210000008344650e-01,0.000000000000000e+00,0.000000000000000e+00
9.942839963432359e-02,4.787499994024034e+02,9.749633470178556e-02,-7.754132753899889e-05,1.005359314050262e-01,2.033049042202460e-03,5.909631969403027e-03,-9.600354838162161e-06,6.097797479603714e-03,0.000000000000000e+00,0.000000000000000e+00,0.000000000000000e+00,9.999999999998001e+01,2.606156920489506e-14,0.000000000000000e+00,1.466409766429560e-03,0.000000000000000e+00,0.000000000000000e+00,9.595108001237073e-07,1.278000000000000e-09,4.680000000000000e+03,6.000000000000000e-01,1,2.220000028610229e-01,2.220000028610229e-01,0.000000000000000e+00,0.000000000000000e+00
9.930059937533009e-02,4.785499989969958e+02,9.738597494645654e-02,-7.745997059294126e-05,1.004022484984492e-01,2.018636933420023e-03,5.903692353188245e-03,-9.590282073412186e-06,6.090414049264058e-03,0.000000000000000e+00,0.000000000000000e+00,0.000000000000000e+00,9.999999999998001e+01,2.461370108470465e-14,0.000000000000000e+00,1.472345673672425e-03,0.000000000000000e+00,0.000000000000000e+00,9.595522002076272e-07,1.278000000000000e-09,4.680000000000000e+03,6.000000000000000e-01,1,2.230000048875809e-01,2.230000048875809e-01,0.000000000000000e+00,0.000000000000000e+00
9.917279911633661e-02,4.783499985915882e+02,9.727561519112750e-02,-7.737861364688362e-05,1.002685655918722e-01,2.004224824637587e-03,5.897752736973464e-03,-9.580209308662209e-06,6.083030618924402e-03,0.000000000000000e+00,0.000000000000000e+00,0.000000000000000e+00,9.999999999998001e+01,2.316583296451426e-14,0.000000000000000e+00,1.478281580915290e-03,0.000000000000000e+00,0.000000000000000e+00,9.595936002915468e-07,1.278000000000000e-09,4.680000000000000e+03,6.000000000000000e-01,1,2.240000069141388e-01,2.240000069141388e-01,0.000000000000000e+00,0.000000000000000e+00
9.904500076171152e-02,4.781500011664129e+02,9.716525708028363e-02,-7.729725791313650e-05,1.001348846773217e-01,1.989812930611872e-03,5.891813209265681e-03,-9.570136694007821e-06,6.075647298606209e-03,0.000000000000000e+00,0.000000000000000e+00,0.000000000000000e+00,9.999999999998001e+01,2.171798641919638e-14,0.000000000000000e+00,1.484217399706424e-03,0.000000000000000e+00,0.000000000000000e+00,9.596349997585583e-07,1.278000000000000e-09,4.680000000000000e+03,6.000000000000000e-01,1,2.249999940395355e-01,2.249999940395355e-01,0.000000000000000e+00,0.000000000000000e+00
9.891720050271802e-02,4.779500007610053e+02,9.705489732495459e-02,-7.721590096707885e-05,1.000012017707446e-01,1.975400821829436e-03,5.885873593050900e-03,-9.560063929257846e-06,6.068263868266553e-03,0.000000000000000e+00,0.000000000000000e+00,0.000000000000000e+00,9.999999999998002e+01,2.027011829900597e-14,0.000000000000000e+00,1.490153306949289e-03,0.000000000000000e+00,0.000000000000000e+00,9.596763998424782e-07,1.278000000000000e-09,4.680000000000000e+03,6.000000000000000e-01,1,2.259999960660934e-01,2.259999960660934e-01,0.000000000000000e+00,0.000000000000000e+00
9.878940024372453e-02,4.777500003555976e+02,9.694453756962557e-02,-7.713454402102122e-05,9.986751886416761e-02,1.960988713047000e-03,5.879933976836118e-03,-9.549991164507870e-06,6.060880437926897e-03,0.000000000000000e+00,0.000000000000000e+00,0.000000000000000e+00,9.999999999998001e+01,1.882225017881557e-14,0.000000000000000e+00,1.496089214192154e-03,0.000000000000000e+00,0.000000000000000e+00,9.597177999263980e-07,1.278000000000000e-09,4.680000000000000e+03,6.000000000000000e-01,1,2.269999980926514e-01,2.269999980926514e-01,0.000000000000000e+00,0.000000000000000e+00
9.866159998473104e-02,4.775499999501901e+02,9.683417781429651e-02,-7.705318707496359e-05,9.973383595759060e-02,1.946576604264564e-03,5.873994360621337e-03,-9.539918399757897e-06,6.053497007587241e-03,0.000000000000000e+00,0.000000000000000e+00,0.000000000000000e+00,9.999999999998002e+01,1.737438205862517e-14,0.000000000000000e+00,1.502025121435019e-03,0.000000000000000e+00,0.000000000000000e+00,9.597592000103176e-07,1.278000000000000e-09,4.680000000000000e+03,6.000000000000000e-01,1,2.280000001192093e-01,2.280000001192093e-01,0.000000000000000e+00,0.000000000000000e+00
9.853379972573754e-02,4.773499995447826e+02,9.672381805896749e-02,-7.697183012890594e-05,9.960015305101358e-02,1.932164495482128e-03,5.868054744406555e-03,-9.529845635007920e-06,6.046113577247585e-03,0.000000000000000e+00,0.000000000000000e+00,0.000000000000000e+00,9.999999999998001e+01,1.592651393843477e-14,0.000000000000000e+00,1.507961028677884e-03,0.000000000000000e+00,0.000000000000000e+00,9.598006000942372e-07,1.278000000000000e-09,4.680000000000000e+03,6.000000000000000e-01,1,2.290000021457672e-01,2.290000021457672e-01,0.000000000000000e+00,0.000000000000000e+00
9.840599946674405e-02,4.771499991393749e+02,9.661345830363846e-02,-7.689047318284831e-05,9.946647014443655e-02,1.917752386699692e-03,5.862115128191773e-03,-9.519772870257945e-06,6.038730146907929e-03,0.000000000000000e+00,0.000000000000000e+00,0.000000000000000e+00,9.999999999998001e+01,1.447864581824437e-14,0.000000000000000e+00,1.513896935920750e-03,0.000000000000000e+00,0.000000000000000e+00,9.598420001781571e-07,1.278000000000000e-09,4.680000000000000e+03,6.000000000000000e-01,1,2.300000041723251e-01,2.300000041723251e-01,0.000000000000000e+00,0.000000000000000e+00
9.827819920775055e-02,4.769499987339674e+02,9.650309854830941e-02,-7.680911623679068e-05,9.933278723785953e-02,1.903340277917256e-03,5.856175511976992e-03,-9.509700105507970e-06,6.031346716568273e-03,0.000000000000000e+00,0.000000000000000e+00,0.000000000000000e+00,9.999999999998001e+01,1.303077769805396e-14,0.000000000000000e+00,1.519832843163615e-03,0.000000000000000e+00,0.000000000000000e+00,9.598834002620767e-07,1.278000000000000e-09,4.680000000000000e+03,6.000000000000000e-01,1,2.310000061988831e-01,2.310000061988831e-01,0.000000000000000e+00,0.000000000000000e+00
9.815040085312547e-02,4.767500013087920e+02,9.639274043746555e-02,-7.672776050304355e-05,9.919910632330900e-02,1.888928383891540e-03,5.850235984269210e-03,-9.499627490853582e-06,6.023963396250081e-03,0.000000000000000e+00,0.000000000000000e+00,0.000000000000000e+00,9.999999999998002e+01,1.158293115273608e-14,0.000000000000000e+00,1.525768661954748e-03,0.000000000000000e+00,0.000000000000000e+00,9.599247997290882e-07,1.278000000000000e-09,4.680000000000000e+03,6.000000000000000e-01,1,2.319999933242798e-01,2.319999933242798e-01,0.000000000000000e+00,0.000000000000000e+00
9.802260059413198e-02,4.765500009033844e+02,9.628238068213653e-02,-7.664640355698591e-05,9.906542341673198e-02,1.874516275109104e-03,5.844296368054428e-03,-9.489554726103607e-06,6.016579965910425e-03,0.000000000000000e+00,0.000000000000000e+00,0.000000000000000e+00,9.999999999998001e+01,1.013506303254568e-14,0.000000000000000e+00,1.531704569197614e-03,0.000000000000000e+00,0.000000000000000e+00,9.599661998130081e-07,1.278000000000000e-09,4.680000000000000e+03,6.000000000000000e-01,1,2.329999953508377e-01,2.329999953508377e-01,0.000000000000000e+00,0.000000000000000e+00
9.789480033513848e-02,4.763500004979769e+02,9.617202092680749e-02,-7.656504661092828e-05,9.893174051015495e-02,1.860104166326668e-03,5.838356751839646e-03,-9.479481961353633e-06,6.009196535570770e-03,0.000000000000000e+00,0.000000000000000e+00,0.000000000000000e+00,9.999999999998001e+01,8.687194912355279e-15,0.000000000000000e+00,1.537640476440479e-03,0.000000000000000e+00,0.000000000000000e+00,9.600075998969277e-07,1.278000000000000e-09,4.680000000000000e+03,6.000000000000000e-01,1,2.339999973773956e-01,2.339999973773956e-01,0.000000000000000e+00,0.000000000000000e+00
9.776700007614500e-02,4.761500000925693e+02,9.606166117147845e-02,-7.648368966487064e-05,9.879805760357793e-02,1.845692057544232e-03,5.832417135624865e-03,-9.469409196603656e-06,6.001813105231114e-03,0.000000000000000e+00,0.000000000000000e+00,0.000000000000000e+00,9.999999999998001e+01,7.239326792164881e-15,0.000000000000000e+00,1.543576383683344e-03,0.000000000000000e+00,0.000000000000000e+00,9.600489999808473e-07,1.278000000000000e-09,4.680000000000000e+03,6.000000000000000e-01,1,2.349999994039536e-01,2.349999994039536e-01,0.000000000000000e+00,0.000000000000000e+00
9.763919981715151e-02,4.759499996871617e+02,9.595130141614941e-02,-7.640233271881300e-05,9.866437469700091e-02,1.831279948761796e-03,5.826477519410083e-03,-9.459336431853680e-06,5.994429674891457e-03,0.000000000000000e+00,0.000000000000000e+00,0.000000000000000e+00,9.999999999998001e+01,5.791458671974472e-15,0.000000000000000e+00,1.549512290926209e-03,0.000000000000000e+00,0.000000000000000e+00,9.600904000647671e-07,1.278000000000000e-09,4.680000000000000e+03,6.000000000000000e-01,1,2.360000014305115e-01,2.360000014305115e-01,0.000000000000000e+00,0.000000000000000e+00
9.751139955815800e-02,4.757499992817541e+02,9.584094166082038e-02,-7.632097577275538e-05,9.853069179042390e-02,1.816867839979360e-03,5.820537903195301e-03,-9.449263667103706e-06,5.987046244551801e-03,0.000000000000000e+00,0.000000000000000e+00,0.000000000000000e+00,9.999999999998001e+01,4.343590551784075e-15,0.000000000000000e+00,1.555448198169074e-03,0.000000000000000e+00,0.000000000000000e+00,9.601318001486868e-07,1.278000000000000e-09,4.680000000000000e+03,6.000000000000000e-01,1,2.370000034570694e-01,2.370000034570694e-01,0.000000000000000e+00,0.000000000000000e+00
9.738359929916453e-02,4.755499988763465e+02,9.573058190549134e-02,-7.623961882669774e-05,9.839700888384686e-02,1.802455731196924e-03,5.814598286980520e-03,-9.439190902353730e-06,5.979662814212146e-03,0.000000000000000e+00,0.000000000000000e+00,0.000000000000000e+00,9.999999999998001e+01,2.895722431593665e-15,0.000000000000000e+00,1.561384105411939e-03,0.000000000000000e+00,0.000000000000000e+00,9.601732002326066e-07,1.278000000000000e-09,4.680000000000000e+03,6.000000000000000e-01,1,2.380000054836273e-01,2.380000054836273e-01,0.000000000000000e+00,0.000000000000000e+00
9.725580094453944e-02,4.753500014511711e+02,9.562022379464749e-02,-7.615826309295061e-05,9.826332796929635e-02,1.788043837171208e-03,5.808658759272737e-03,-9.429118287699342e-06,5.972279493893952e-03,0.000000000000000e+00,0.000000000000000e+00,0.000000000000000e+00,9.999999999998001e+01,1.447875886275793e-15,0.000000000000000e+00,1.567319924203073e-03,0.000000000000000e+00,0.000000000000000e+00,9.602145996996181e-07,1.278000000000000e-09,4.680000000000000e+03,6.000000000000000e-01,1,2.389999926090240e-01,2.389999926090240e-01,0.000000000000000e+00,0.000000000000000e+00
9.712800068554593e-02,4.751500010457636e+02,9.550986403931845e-02,-7.607690614689298e-05,9.812964506271933e-02,1.773631728388772e-03,5.802719143057957e-03,-9.419045522949367e-06,5.964896063554296e-03,0.000000000000000e+00,0.000000000000000e+00,0.000000000000000e+00,9.999999999998001e+01,7.766085382866030e-21,0.000000000000000e+00,1.573255831445938e-03,0.000000000000000e+00,0.000000000000000e+00,9.602559997835378e-07,1.278000000000000e-09,4.680000000000000e+03,6.000000000000000e-01,1,2.399999946355820e-01,2.399999946355820e-01,0.000000000000000e+00,0.000000000000000e+00
9.700020042655202e-02,4.749500006403665e+02,9.539465510588346e-02,-7.520036468190472e-05,9.799421252402538e-02,1.757289830213273e-03,5.796598802779965e-03,-9.310521341569826e-06,5.957523785807915e-03,0.000000000000000e+00,0.000000000000000e+00,0.000000000000000e+00,9.999999999998001e+01,2.895720708201792e-15,0.000000000000000e+00,1.578949843822707e-03,0.000000000000000e+00,0.000000000000000e+00,9.602973998674550e-07,1.278000000000000e-09,4.680000000000001e+03,6.000000000000001e-01,1,2.409999966621399e-01,2.409999966621399e-01,0.000000000000000e+00,0.000000000000000e+00
9.687240016755810e-02,4.747500002349694e+02,9.527944614643825e-02,-7.432381895167720e-05,9.785877997594671e-02,1.740947921686700e-03,5.790478461532598e-03,-9.201996632113043e-06,5.950151508121355e-03,0.000000000000000e+00,0.000000000000000e+00,0.000000000000000e+00,9.999999999998002e+01,5.791456948574360e-15,0.000000000000000e+00,1.584643854901991e-03,0.000000000000000e+00,0.000000000000000e+00,9.603387999513721e-07,1.278000000000000e-09,4.680000000000000e+03,6.000000000000000e-01,1,2.419999986886978e-01,2.419999986886978e-01,0.000000000000000e+00,0.000000000000000e+00
9.674459990856417e-02,4.745499998295723e+02,9.516423718699306e-02,-7.344727322144965e-05,9.772334742786801e-02,1.724606013160127e-03,5.784358120285231e-03,-9.093471922656256e-06,5.942779230434793e-03,0.000000000000000e+00,0.000000000000000e+00,0.000000000000000e+00,9.999999999997999e+01,8.687193188946928e-15,0.000000000000000e+00,1.590337865981275e-03,0.000000000000000e+00,0.000000000000000e+00,9.603802000352892e-07,1.278000000000000e-09,4.680000000000000e+03,5.999999999999999e-01,1,2.430000007152557e-01,2.430000007152557e-01,0.000000000000000e+00,0.000000000000000e+00
9.661679964957023e-02,4.743499994241753e+02,9.504902822754785e-02,-7.257072749122212e-05,9.758791487978931e-02,1.708264104633554e-03,5.778237779037866e-03,-8.984947213199471e-06,5.935406952748232e-03,0.000000000000000e+00,0.000000000000000e+00,0.000000000000000e+00,9.999999999997999e+01,1.158292942931950e-14,0.000000000000000e+00,1.596031877060559e-03,0.000000000000000e+00,0.000000000000000e+00,9.604216001192063e-07,1.278000000000000e-09,4.680000000000000e+03,6.000000000000000e-01,1,2.440000027418137e-01,2.440000027418137e-01,0.000000000000000e+00,0.000000000000000e+00
9.648899939057633e-02,4.741499990187781e+02,9.493381926810267e-02,-7.169418176099458e-05,9.745248233171064e-02,1.691922196106981e-03,5.772117437790499e-03,-8.876422503742685e-06,5.928034675061671e-03,0.000000000000000e+00,0.000000000000000e+00,0.000000000000000e+00,9.999999999998001e+01,1.447866566969206e-14,0.000000000000000e+00,1.601725888139843e-03,0.000000000000000e+00,0.000000000000000e+00,9.604630002031234e-07,1.278000000000000e-09,4.680000000000000e+03,6.000000000000000e-01,1,2.450000047683716e-01,2.450000047683716e-01,0.000000000000000e+00,0.000000000000000e+00
9.636119913158241e-02,4.739499986133811e+02,9.481861030865747e-02,-7.081763603076706e-05,9.731704978363195e-02,1.675580287580408e-03,5.765997096543133e-03,-8.767897794285900e-06,5.920662397375110e-03,0.000000000000000e+00,0.000000000000000e+00,0.000000000000000e+00,9.999999999998001e+01,1.737440191006463e-14,0.000000000000000e+00,1.607419899219127e-03,0.000000000000000e+00,0.000000000000000e+00,9.605044002870404e-07,1.278000000000000e-09,4.680000000000000e+03,6.000000000000000e-01,1,2.460000067949295e-01,2.460000067949295e-01,0.000000000000000e+00,0.000000000000000e+00
9.623340077695688e-02,4.737500011882162e+02,9.470340306595608e-02,-6.994110336206226e-05,9.718161925365140e-02,1.659238622566755e-03,5.759876846495773e-03,-8.659374701970026e-06,5.913290229543825e-03,0.000000000000000e+00,0.000000000000000e+00,0.000000000000000e+00,9.999999999997999e+01,2.027009500069215e-14,0.000000000000000e+00,1.613113825451207e-03,0.000000000000000e+00,0.000000000000000e+00,9.605457997540494e-07,1.278000000000000e-09,4.680000000000000e+03,6.000000000000000e-01,1,2.469999939203262e-01,2.469999939203262e-01,0.000000000000000e+00,0.000000000000000e+00
9.610560051796296e-02,4.735500007828192e+02,9.458819410651090e-02,-6.906455763183473e-05,9.704618670557272e-02,1.642896714040182e-03,5.753756505248408e-03,-8.550849992513241e-06,5.905917951857263e-03,0.000000000000000e+00,0.000000000000000e+00,0.000000000000000e+00,9.999999999998001e+01,2.316583124106472e-14,0.000000000000000e+00,1.618807836530491e-03,0.000000000000000e+00,0.000000000000000e+00,9.605871998379667e-07,1.278000000000000e-09,4.680000000000000e+03,6.000000000000000e-01,1,2.479999959468842e-01,2.479999959468842e-01,0.000000000000000e+00,0.000000000000000e+00
9.597780025896904e-02,4.733500003774221e+02,9.447298514706569e-02,-6.818801190160720e-05,9.691075415749403e-02,1.626554805513609e-03,5.747636164001041e-03,-8.442325283056456e-06,5.898545674170703e-03,0.000000000000000e+00,0.000000000000000e+00,0.000000000000000e+00,9.999999999998001e+01,2.606156748143729e-14,0.000000000000000e+00,1.624501847609775e-03,0.000000000000000e+00,0.000000000000000e+00,9.606285999218838e-07,1.278000000000000e-09,4.680000000000000e+03,6.000000000000000e-01,1,2.489999979734421e-01,2.489999979734421e-01,0.000000000000000e+00,0.000000000000000e+00
9.584999999997512e-02,4.731499999720249e+02,9.435777618762049e-02,-6.731146617137965e-05,9.677532160941535e-02,1.610212896987036e-03,5.741515822753675e-03,-8.333800573599671e-06,5.891173396484142e-03,0.000000000000000e+00,0.000000000000000e+00,0.000000000000000e+00,9.999999999997999e+01,2.895730372180985e-14,0.000000000000000e+00,1.630195858689059e-03,0.000000000000000e+00,0.000000000000000e+00,9.606700000058009e-07,1.278000000000000e-09,4.680000000000000e+03,6.000000000000000e-01,1,2.500000000000000e-01,2.500000000000000e-01,0.000000000000000e+00,0.000000000000000e+00
9.572220164534960e-02,4.729500025468601e+02,9.424256894491910e-02,-6.643493350267487e-05,9.663989107943480e-02,1.593871231973383e-03,5.735395572706315e-03,-8.225277481283798e-06,5.883801228652857e-03,0.000000000000000e+00,0.000000000000000e+00,0.000000000000000e+00,9.999999999998001e+01,3.185299681243737e-14,0.000000000000000e+00,1.635889784921138e-03,0.000000000000000e+00,0.000000000000000e+00,9.607113994728099e-07,1.278000000000000e-09,4.680000000000000e+03,6.000000000000000e-01,1,2.509999871253967e-01,2.509999871253967e-01,0.000000000000000e+00,0.000000000000000e+00
9.559439948198728e-02,4.727499991612308e+02,9.412735826873010e-02,-6.555837471092457e-05,9.650445651325798e-02,1.577529079933890e-03,5.729275140258942e-03,-8.116751154686100e-06,5.876428841111021e-03,0.000000000000000e+00,0.000000000000000e+00,0.000000000000000e+00,9.999999999997999e+01,3.474877620255499e-14,0.000000000000000e+00,1.641583880847627e-03,0.000000000000000e+00,0.000000000000000e+00,9.607528001736350e-07,1.278000000000000e-09,4.680000000000000e+03,5.999999999999999e-01,1,2.520000040531158e-01,2.520000040531158e-01,0.000000000000000e+00,0.000000000000000e+00
9.546660112736176e-02,4.725500017360660e+02,9.401215102602872e-02,-6.468184204221980e-05,9.636902598327744e-02,1.561187414920237e-03,5.723154890211584e-03,-8.008228062370228e-06,5.869056673279735e-03,0.000000000000000e+00,0.000000000000000e+00,0.000000000000000e+00,9.999999999998001e+01,3.764446929318251e-14,0.000000000000000e+00,1.647277807079706e-03,0.000000000000000e+00,0.000000000000000e+00,9.607941996406441e-07,1.278000000000000e-09,4.680000000000000e+03,6.000000000000000e-01,1,2.529999911785126e-01,2.529999911785126e-01,0.000000000000000e+00,0.000000000000000e+00
9.533879896399942e-02,4.723499983504366e+02,9.389694034983971e-02,-6.380528325046951e-05,9.623359141710060e-02,1.544845262880745e-03,5.717034457764210e-03,-7.899701735772528e-06,5.861684285737898e-03,0.000000000000000e+00,0.000000000000000e+00,0.000000000000000e+00,9.999999999997999e+01,4.054024868330013e-14,0.000000000000000e+00,1.652971903006195e-03,0.000000000000000e+00,0.000000000000000e+00,9.608356003414692e-07,1.278000000000000e-09,4.680000000000000e+03,6.000000000000000e-01,1,2.540000081062317e-01,2.540000081062317e-01,0.000000000000000e+00,0.000000000000000e+00
9.521100060937392e-02,4.721500009252718e+02,9.378173310713833e-02,-6.292875058176473e-05,9.609816088712006e-02,1.528503597867091e-03,5.710914207716851e-03,-7.791178643456656e-06,5.854312117906614e-03,0.000000000000000e+00,0.000000000000000e+00,0.000000000000000e+00,9.999999999998002e+01,4.343594177392765e-14,0.000000000000000e+00,1.658665829238275e-03,0.000000000000000e+00,0.000000000000000e+00,9.608769998084782e-07,1.278000000000000e-09,4.680000000000000e+03,6.000000000000001e-01,1,2.549999952316284e-01,2.549999952316284e-01,0.000000000000000e+00,0.000000000000000e+00
9.508319844601158e-02,4.719499975396425e+02,9.366652243094932e-02,-6.205219179001443e-05,9.596272632094324e-02,1.512161445827599e-03,5.704793775269477e-03,-7.682652316858958e-06,5.846939730364776e-03,0.000000000000000e+00,0.000000000000000e+00,0.000000000000000e+00,9.999999999997999e+01,4.633172116404526e-14,0.000000000000000e+00,1.664359925164763e-03,0.000000000000000e+00,0.000000000000000e+00,9.609184005093034e-07,1.278000000000000e-09,4.680000000000000e+03,6.000000000000000e-01,1,2.560000121593475e-01,2.560000121593475e-01,0.000000000000000e+00,0.000000000000000e+00
9.495540009138607e-02,4.717500001144776e+02,9.355131518824794e-02,-6.117565912130967e-05,9.582729579096269e-02,1.495819780813945e-03,5.698673525222119e-03,-7.574129224543086e-06,5.839567562533492e-03,0.000000000000000e+00,0.000000000000000e+00,0.000000000000000e+00,9.999999999998001e+01,4.922741425467278e-14,0.000000000000000e+00,1.670053851396843e-03,0.000000000000000e+00,0.000000000000000e+00,9.609597999763124e-07,1.278000000000000e-09,4.680000000000000e+03,6.000000000000001e-01,1,2.569999992847443e-01,2.569999992847443e-01,0.000000000000000e+00,0.000000000000000e+00
9.482760173676055e-02,4.715500026893128e+02,9.343610794554653e-02,-6.029912645260487e-05,9.569186526098214e-02,1.479478115800292e-03,5.692553275174758e-03,-7.465606132227211e-06,5.832195394702207e-03,0.000000000000000e+00,0.000000000000000e+00,0.000000000000000e+00,9.999999999998001e+01,5.212310734530031e-14,0.000000000000000e+00,1.675747777628922e-03,0.000000000000000e+00,0.000000000000000e+00,9.610011994433214e-07,1.278000000000000e-09,4.680000000000000e+03,6.000000000000000e-01,1,2.579999864101410e-01,2.579999864101410e-01,0.000000000000000e+00,0.000000000000000e+00
9.469979957339822e-02,4.713499993036835e+02,9.332089726935755e-02,-5.942256766085459e-05,9.555643069480532e-02,1.463135963760799e-03,5.686432842727386e-03,-7.357079805629515e-06,5.824823007160369e-03,0.000000000000000e+00,0.000000000000000e+00,0.000000000000000e+00,9.999999999998001e+01,5.501888673541792e-14,0.000000000000000e+00,1.681441873555411e-03,0.000000000000000e+00,0.000000000000000e+00,9.610426001441467e-07,1.278000000000000e-09,4.680000000000000e+03,6.000000000000000e-01,1,2.590000033378601e-01,2.590000033378601e-01,0.000000000000000e+00,0.000000000000000e+00
9.457200121877270e-02,4.711500018785187e+02,9.320569002665614e-02,-5.854603499214979e-05,9.542100016482477e-02,1.446794298747146e-03,5.680312592680026e-03,-7.248556713313641e-06,5.817450839329084e-03,0.000000000000000e+00,0.000000000000000e+00,0.000000000000000e+00,9.999999999998001e+01,5.791457982604544e-14,0.000000000000000e+00,1.687135799787490e-03,0.000000000000000e+00,0.000000000000000e+00,9.610839996111557e-07,1.278000000000000e-09,4.680000000000000e+03,6.000000000000000e-01,1,2.599999904632568e-01,2.599999904632568e-01,0.000000000000000e+00,0.000000000000000e+00
9.444419905541038e-02,4.709499984928893e+02,9.309047935046715e-02,-5.766947620039951e-05,9.528556559864795e-02,1.430452146707654e-03,5.674192160232653e-03,-7.140030386715944e-06,5.810078451787248e-03,0.000000000000000e+00,0.000000000000000e+00,0.000000000000000e+00,9.999999999998001e+01,6.081035921616306e-14,0.000000000000000e+00,1.692829895713979e-03,0.000000000000000e+00,0.000000000000000e+00,9.611254003119809e-07,1.278000000000000e-09,4.680000000000000e+03,6.000000000000000e-01,1,2.610000073909760e-01,2.610000073909760e-01,0.000000000000000e+00,0.000000000000000e+00
9.431640070078486e-02,4.707500010677245e+02,9.297527210776575e-02,-5.679294353169472e-05,9.515013506866740e-02,1.414110481694000e-03,5.668071910185294e-03,-7.031507294400070e-06,5.802706283955962e-03,0.000000000000000e+00,0.000000000000000e+00,0.000000000000000e+00,9.999999999998001e+01,6.370605230679059e-14,0.000000000000000e+00,1.698523821946058e-03,0.000000000000000e+00,0.000000000000000e+00,9.611667997789899e-07,1.278000000000000e-09,4.680000000000000e+03,6.000000000000000e-01,1,2.619999945163727e-01,2.619999945163727e-01,0.000000000000000e+00,0.000000000000000e+00
9.418859853742254e-02,4.705499976820951e+02,9.286006143157677e-02,-5.591638473994444e-05,9.501470050249058e-02,1.397768329654508e-03,5.661951477737921e-03,-6.922980967802373e-06,5.795333896414127e-03,0.000000000000000e+00,0.000000000000000e+00,0.000000000000000e+00,9.999999999998001e+01,6.660183169690819e-14,0.000000000000000e+00,1.704217917872547e-03,0.000000000000000e+00,0.000000000000000e+00,9.612082004798150e-07,1.278000000000000e-09,4.680000000000000e+03,6.000000000000000e-01,1,2.630000114440918e-01,2.630000114440918e-01,0.000000000000000e+00,0.000000000000000e+00
9.406080018279701e-02,4.703500002569302e+02,9.274485418887536e-02,-5.503985207123966e-05,9.487926997251003e-02,1.381426664640854e-03,5.655831227690561e-03,-6.814457875486500e-06,5.787961728582841e-03,0.000000000000000e+00,0.000000000000000e+00,0.000000000000000e+00,9.999999999998001e+01,6.949752478753571e-14,0.000000000000000e+00,1.709911844104626e-03,0.000000000000000e+00,0.000000000000000e+00,9.612495999468243e-07,1.278000000000000e-09,4.680000000000000e+03,6.000000000000000e-01,1,2.639999985694885e-01,2.639999985694885e-01,0.000000000000000e+00,0.000000000000000e+00
9.393300182817149e-02,4.701500028317654e+02,9.262964694617397e-02,-5.416331940253487e-05,9.474383944252948e-02,1.365084999627201e-03,5.649710977643202e-03,-6.705934783170626e-06,5.780589560751555e-03,0.000000000000000e+00,0.000000000000000e+00,0.000000000000000e+00,9.999999999998001e+01,7.239321787816323e-14,0.000000000000000e+00,1.715605770336706e-03,0.000000000000000e+00,0.000000000000000e+00,9.612909994138331e-07,1.278000000000000e-09,4.680000000000000e+03,6.000000000000000e-01,1,2.649999856948853e-01,2.649999856948853e-01,0.000000000000000e+00,0.000000000000000e+00
9.380519966480917e-02,4.699499994461361e+02,9.251443626998498e-02,-5.328676061078458e-05,9.460840487635266e-02,1.348742847587709e-03,5.643590545195829e-03,-6.597408456572928e-06,5.773217173209719e-03,0.000000000000000e+00,0.000000000000000e+00,0.000000000000000e+00,9.999999999998001e+01,7.528899726828084e-14,0.000000000000000e+00,1.721299866263195e-03,0.000000000000000e+00,0.000000000000000e+00,9.613324001146584e-07,1.278000000000000e-09,4.680000000000000e+03,6.000000000000000e-01,1,2.660000026226044e-01,2.660000026226044e-01,0.000000000000000e+00,0.000000000000000e+00
9.367740131018365e-02,4.697500020209712e+02,9.239922902728358e-02,-5.241022794207980e-05,9.447297434637211e-02,1.332401182574055e-03,5.637470295148469e-03,-6.488885364257055e-06,5.765845005378434e-03,0.000000000000000e+00,0.000000000000000e+00,0.000000000000000e+00,9.999999999998002e+01,7.818469035890838e-14,0.000000000000000e+00,1.726993792495274e-03,0.000000000000000e+00,0.000000000000000e+00,9.613737995816674e-07,1.278000000000000e-09,4.680000000000000e+03,6.000000000000000e-01,1,2.669999897480011e-01,2.669999897480011e-01,0.000000000000000e+00,0.000000000000000e+00
9.354959914682132e-02,4.695499986353420e+02,9.228401835109459e-02,-5.153366915032952e-05,9.433753978019530e-02,1.316059030534563e-03,5.631349862701097e-03,-6.380359037659358e-06,5.758472617836597e-03,0.000000000000000e+00,0.000000000000000e+00,0.000000000000000e+00,9.999999999997999e+01,8.108046974902597e-14,0.000000000000000e+00,1.732687888421763e-03,0.000000000000000e+00,0.000000000000000e+00,9.614152002824926e-07,1.278000000000000e-09,4.680000000000000e+03,6.000000000000000e-01,1,2.680000066757202e-01,2.680000066757202e-01,0.000000000000000e+00,0.000000000000000e+00
9.342180079219581e-02,4.693500012101771e+02,9.216881110839319e-02,-5.065713648162472e-05,9.420210925021474e-02,1.299717365520909e-03,5.625229612653737e-03,-6.271835945343484e-06,5.751100450005311e-03,0.000000000000000e+00,0.000000000000000e+00,0.000000000000000e+00,9.999999999998001e+01,8.397616283965351e-14,0.000000000000000e+00,1.738381814653842e-03,0.000000000000000e+00,0.000000000000000e+00,9.614565997495016e-07,1.278000000000000e-09,4.680000000000000e+03,6.000000000000000e-01,1,2.689999938011169e-01,2.689999938011169e-01,0.000000000000000e+00,0.000000000000000e+00
9.329399862883347e-02,4.691499978245478e+02,9.205360043220420e-02,-4.978057768987443e-05,9.406667468403793e-02,1.283375213481417e-03,5.619109180206364e-03,-6.163309618745786e-06,5.743728062463475e-03,0.000000000000000e+00,0.000000000000000e+00,0.000000000000000e+00,9.999999999998002e+01,8.687194222977112e-14,0.000000000000000e+00,1.744075910580331e-03,0.000000000000000e+00,0.000000000000000e+00,9.614980004503267e-07,1.278000000000000e-09,4.680000000000000e+03,6.000000000000000e-01,1,2.700000107288361e-01,2.700000107288361e-01,0.000000000000000e+00,0.000000000000000e+00
9.316620027420795e-02,4.689500003993829e+02,9.193839318950280e-02,-4.890404502116966e-05,9.393124415405738e-02,1.267033548467763e-03,5.612988930159005e-03,-6.054786526429913e-06,5.736355894632190e-03,0.000000000000000e+00,0.000000000000000e+00,0.000000000000000e+00,9.999999999998001e+01,8.976763532039864e-14,0.000000000000000e+00,1.749769836812410e-03,0.000000000000000e+00,0.000000000000000e+00,9.615393999173357e-07,1.278000000000000e-09,4.680000000000000e+03,6.000000000000000e-01,1,2.709999978542328e-01,2.709999978542328e-01,0.000000000000000e+00,0.000000000000000e+00
9.303839811084563e-02,4.687499970137536e+02,9.182318251331381e-02,-4.802748622941936e-05,9.379580958788054e-02,1.250691396428271e-03,5.606868497711632e-03,-5.946260199832216e-06,5.728983507090354e-03,0.000000000000000e+00,0.000000000000000e+00,0.000000000000000e+00,9.999999999998001e+01,9.266341471051625e-14,0.000000000000000e+00,1.755463932738899e-03,0.000000000000000e+00,0.000000000000000e+00,9.615808006181609e-07,1.278000000000000e-09,4.680000000000000e+03,6.000000000000000e-01,1,2.720000147819519e-01,2.720000147819519e-01,0.000000000000000e+00,0.000000000000000e+00
9.291059975622011e-02,4.685499995885888e+02,9.170797527061242e-02,-4.715095356071458e-05,9.366037905790001e-02,1.234349731414618e-03,5.600748247664272e-03,-5.837737107516343e-06,5.721611339259068e-03,0.000000000000000e+00,0.000000000000000e+00,0.000000000000000e+00,9.999999999998002e+01,9.555910780114377e-14,0.000000000000000e+00,1.761157858970979e-03,0.000000000000000e+00,0.000000000000000e+00,9.616222000851699e-07,1.278000000000000e-09,4.680000000000000e+03,6.000000000000000e-01,1,2.730000019073486e-01,2.730000019073486e-01,0.000000000000000e+00,0.000000000000000e+00
9.278280140159460e-02,4.683500021634239e+02,9.159276802791101e-02,-4.627442089200979e-05,9.352494852791945e-02,1.218008066400964e-03,5.594627997616912e-03,-5.729214015200470e-06,5.714239171427783e-03,0.000000000000000e+00,0.000000000000000e+00,0.000000000000000e+00,9.999999999998001e+01,9.845480089177129e-14,0.000000000000000e+00,1.766851785203058e-03,0.000000000000000e+00,0.000000000000000e+00,9.616635995521791e-07,1.278000000000000e-09,4.680000000000000e+03,6.000000000000000e-01,1,2.739999890327454e-01,2.739999890327454e-01,0.000000000000000e+00,0.000000000000000e+00
9.265499923823228e-02,4.681499987777946e+02,9.147755735172203e-02,-4.539786210025951e-05,9.338951396174264e-02,1.201665914361472e-03,5.588507565169539e-03,-5.620687688602772e-06,5.706866783885946e-03,0.000000000000000e+00,0.000000000000000e+00,0.000000000000000e+00,9.999999999998001e+01,1.013505802818889e-13,0.000000000000000e+00,1.772545881129547e-03,0.000000000000000e+00,0.000000000000000e+00,9.617050002530041e-07,1.278000000000000e-09,4.680000000000000e+03,6.000000000000000e-01,1,2.750000059604645e-01,2.750000059604645e-01,0.000000000000000e+00,0.000000000000000e+00
9.252720088360676e-02,4.679500013526298e+02,9.136235010902062e-02,-4.452132943155472e-05,9.325408343176209e-02,1.185324249347819e-03,5.582387315122180e-03,-5.512164596286898e-06,5.699494616054661e-03,0.000000000000000e+00,0.000000000000000e+00,0.000000000000000e+00,9.999999999998002e+01,1.042462733725164e-13,0.000000000000000e+00,1.778239807361626e-03,0.000000000000000e+00,0.000000000000000e+00,9.617463997200133e-07,1.278000000000000e-09,4.680000000000000e+03,6.000000000000000e-01,1,2.759999930858612e-01,2.759999930858612e-01,0.000000000000000e+00,0.000000000000000e+00
9.239939872024444e-02,4.677499979670004e+02,9.124713943283162e-02,-4.364477063980444e-05,9.311864886558527e-02,1.168982097308326e-03,5.576266882674807e-03,-5.403638269689201e-06,5.692122228512824e-03,0.000000000000000e+00,0.000000000000000e+00,0.000000000000000e+00,9.999999999998001e+01,1.071420527626340e-13,0.000000000000000e+00,1.783933903288115e-03,0.000000000000000e+00,0.000000000000000e+00,9.617878004208384e-07,1.278000000000000e-09,4.680000000000000e+03,6.000000000000000e-01,1,2.770000100135803e-01,2.770000100135803e-01,0.000000000000000e+00,0.000000000000000e+00
9.227160036561891e-02,4.675500005418356e+02,9.113193219013024e-02,-4.276823797109965e-05,9.298321833560472e-02,1.152640432294673e-03,5.570146632627448e-03,-5.295115177373328e-06,5.684750060681539e-03,0.000000000000000e+00,0.000000000000000e+00,0.000000000000000e+00,9.999999999998001e+01,1.100377458532616e-13,0.000000000000000e+00,1.789627829520194e-03,0.000000000000000e+00,0.000000000000000e+00,9.618291998878474e-07,1.278000000000000e-09,4.680000000000000e+03,6.000000000000000e-01,1,2.779999971389771e-01,2.779999971389771e-01,0.000000000000000e+00,0.000000000000000e+00
9.214379820225659e-02,4.673499971562063e+02,9.101672151394125e-02,-4.189167917934937e-05,9.284778376942789e-02,1.136298280255180e-03,5.564026200180075e-03,-5.186588850775630e-06,5.677377673139703e-03,0.000000000000000e+00,0.000000000000000e+00,0.000000000000000e+00,9.999999999998001e+01,1.129335252433792e-13,0.000000000000000e+00,1.795321925446683e-03,0.000000000000000e+00,0.000000000000000e+00,9.618706005886726e-07,1.278000000000000e-09,4.680000000000000e+03,6.000000000000000e-01,1,2.790000140666962e-01,2.790000140666962e-01,0.000000000000000e+00,0.000000000000000e+00
9.201599984763105e-02,4.671499997310414e+02,9.090151426663561e-02,-4.101514710696098e-05,9.271235324047918e-02,1.119956613996647e-03,5.557905949924755e-03,-5.078065832289408e-06,5.670005505449357e-03,0.000000000000000e+00,0.000000000000000e+00,0.000000000000000e+00,9.999999999998001e+01,1.158292096989900e-13,0.000000000000000e+00,1.801015851383836e-03,0.000000000000000e+00,0.000000000000000e+00,9.619120000556816e-07,1.278000000000000e-09,4.680000000000000e+03,6.000000000000000e-01,1,2.800000011920929e-01,2.800000011920929e-01,0.000000000000000e+00,0.000000000000000e+00
9.188820149300531e-02,4.669500023058891e+02,9.078244703095448e-02,-4.063854088938836e-05,9.257778775025670e-02,1.102571294814120e-03,5.551611355093894e-03,-5.031438395828066e-06,5.662751494861149e-03,0.000000000000000e+00,0.000000000000000e+00,0.000000000000000e+00,9.999999999998001e+01,1.114856700630482e-13,0.000000000000000e+00,1.806462524206295e-03,0.000000000000000e+00,0.000000000000000e+00,9.619533995226883e-07,1.278000000000000e-09,4.680000000000000e+03,6.000000000000000e-01,1,2.809999883174896e-01,2.809999883174896e-01,0.000000000000000e+00,0.000000000000000e+00
9.176039932964272e-02,4.667499989202723e+02,9.066337624674752e-02,-4.026192344793133e-05,9.244321824961846e-02,1.085185457502036e-03,5.545316572667074e-03,-4.984809569742940e-06,5.655497268083796e-03,0.000000000000000e+00,0.000000000000000e+00,0.000000000000000e+00,9.999999999998001e+01,1.071420009778713e-13,0.000000000000000e+00,1.811909359354344e-03,0.000000000000000e+00,0.000000000000000e+00,9.619948002235109e-07,1.278000000000000e-09,4.680000000000000e+03,6.000000000000000e-01,1,2.820000052452087e-01,2.820000052452087e-01,0.000000000000000e+00,0.000000000000000e+00
9.163260097501695e-02,4.665500014951199e+02,9.054430901106637e-02,-3.988531723035870e-05,9.230865275939598e-02,1.067800138319509e-03,5.539021977836212e-03,-4.938182133281598e-06,5.648243257495589e-03,0.000000000000000e+00,0.000000000000000e+00,0.000000000000000e+00,9.999999999998001e+01,1.027984613419295e-13,0.000000000000000e+00,1.817356032176803e-03,0.000000000000000e+00,0.000000000000000e+00,9.620361996905173e-07,1.278000000000000e-09,4.680000000000000e+03,6.000000000000000e-01,1,2.829999923706055e-01,2.829999923706055e-01,0.000000000000000e+00,0.000000000000000e+00
9.150479881165438e-02,4.663499981095031e+02,9.042523822685940e-02,-3.950869978890166e-05,9.217408325875774e-02,1.050414301007424e-03,5.532727195409391e-03,-4.891553307196472e-06,5.640989030718237e-03,0.000000000000000e+00,0.000000000000000e+00,0.000000000000000e+00,9.999999999998001e+01,9.845479225675259e-14,0.000000000000000e+00,1.822802867324851e-03,0.000000000000000e+00,0.000000000000000e+00,9.620776003913402e-07,1.278000000000000e-09,4.680000000000001e+03,6.000000000000001e-01,1,2.840000092983246e-01,2.840000092983246e-01,0.000000000000000e+00,0.000000000000000e+00
9.137700045702861e-02,4.661500006843507e+02,9.030617099117826e-02,-3.913209357132903e-05,9.203951776853525e-02,1.033028981824897e-03,5.526432600578530e-03,-4.844925870735131e-06,5.633735020130029e-03,0.000000000000000e+00,0.000000000000000e+00,0.000000000000000e+00,9.999999999998001e+01,9.411125262081082e-14,0.000000000000000e+00,1.828249540147310e-03,0.000000000000000e+00,0.000000000000000e+00,9.621189998583466e-07,1.278000000000000e-09,4.680000000000000e+03,6.000000000000000e-01,1,2.849999964237213e-01,2.849999964237213e-01,0.000000000000000e+00,0.000000000000000e+00
9.124919829366604e-02,4.659499972987339e+02,9.018710020697129e-02,-3.875547612987200e-05,9.190494826789702e-02,1.015643144512812e-03,5.520137818151709e-03,-4.798297044650004e-06,5.626480793352676e-03,0.000000000000000e+00,0.000000000000000e+00,0.000000000000000e+00,9.999999999998001e+01,8.976758353563390e-14,0.000000000000000e+00,1.833696375295359e-03,0.000000000000000e+00,0.000000000000000e+00,9.621604005591692e-07,1.278000000000000e-09,4.680000000000000e+03,6.000000000000000e-01,1,2.860000133514404e-01,2.860000133514404e-01,0.000000000000000e+00,0.000000000000000e+00
9.112139993904027e-02,4.657499998735816e+02,9.006803297129015e-02,-3.837886991229937e-05,9.177038277767455e-02,9.982578253302850e-04,5.513843223320849e-03,-4.751669608188663e-06,5.619226782764469e-03,0.000000000000000e+00,0.000000000000000e+00,0.000000000000000e+00,9.999999999998001e+01,8.542404389969212e-14,0.000000000000000e+00,1.839143048117818e-03,0.000000000000000e+00,0.000000000000000e+00,9.622018000261757e-07,1.278000000000000e-09,4.680000000000000e+03,6.000000000000000e-01,1,2.870000004768372e-01,2.870000004768372e-01,0.000000000000000e+00,0.000000000000000e+00
9.099360158441448e-02,4.655500024484293e+02,8.994896573560901e-02,-3.800226369472675e-05,9.163581728745207e-02,9.808725061477581e-04,5.507548628489987e-03,-4.705042171727321e-06,5.611972772176262e-03,0.000000000000000e+00,0.000000000000000e+00,0.000000000000000e+00,9.999999999997999e+01,8.108050426375033e-14,0.000000000000000e+00,1.844589720940277e-03,0.000000000000000e+00,0.000000000000000e+00,9.622431994931824e-07,1.278000000000000e-09,4.680000000000000e+03,6.000000000000000e-01,1,2.879999876022339e-01,2.879999876022339e-01,0.000000000000000e+00,0.000000000000000e+00
9.086579942105191e-02,4.653499990628123e+02,8.982989495140203e-02,-3.762564625326971e-05,9.150124778681383e-02,9.634866688356732e-04,5.501253846063166e-03,-4.658413345642195e-06,5.604718545398908e-03,0.000000000000000e+00,0.000000000000000e+00,0.000000000000000e+00,9.999999999998001e+01,7.673683517857343e-14,0.000000000000000e+00,1.850036556088325e-03,0.000000000000000e+00,0.000000000000000e+00,9.622846001940050e-07,1.278000000000000e-09,4.680000000000000e+03,6.000000000000000e-01,1,2.890000045299530e-01,2.890000045299530e-01,0.000000000000000e+00,0.000000000000000e+00
9.073800106642614e-02,4.651500016376601e+02,8.971082771572089e-02,-3.724904003569708e-05,9.136668229659135e-02,9.461013496531463e-04,5.494959251232305e-03,-4.611785909180853e-06,5.597464534810701e-03,0.000000000000000e+00,0.000000000000000e+00,0.000000000000000e+00,9.999999999998001e+01,7.239329554263163e-14,0.000000000000000e+00,1.855483228910784e-03,0.000000000000000e+00,0.000000000000000e+00,9.623259996610114e-07,1.278000000000000e-09,4.680000000000000e+03,6.000000000000000e-01,1,2.899999916553497e-01,2.899999916553497e-01,0.000000000000000e+00,0.000000000000000e+00
9.061019890306357e-02,4.649499982520432e+02,8.959175693151393e-02,-3.687242259424005e-05,9.123211279595311e-02,9.287155123410615e-04,5.488664468805484e-03,-4.565157083095727e-06,5.590210308033349e-03,0.000000000000000e+00,0.000000000000000e+00,0.000000000000000e+00,9.999999999997999e+01,6.804962645745472e-14,0.000000000000000e+00,1.860930064058832e-03,0.000000000000000e+00,0.000000000000000e+00,9.623674003618341e-07,1.278000000000000e-09,4.680000000000000e+03,6.000000000000000e-01,1,2.910000085830688e-01,2.910000085830688e-01,0.000000000000000e+00,0.000000000000000e+00
9.048240054843781e-02,4.647500008268909e+02,8.947268969583280e-02,-3.649581637666742e-05,9.109754730573064e-02,9.113301931585345e-04,5.482369873974624e-03,-4.518529646634386e-06,5.582956297445142e-03,0.000000000000000e+00,0.000000000000000e+00,0.000000000000000e+00,9.999999999998002e+01,6.370608682151295e-14,0.000000000000000e+00,1.866376736881292e-03,0.000000000000000e+00,0.000000000000000e+00,9.624087998288407e-07,1.278000000000000e-09,4.680000000000000e+03,6.000000000000001e-01,1,2.919999957084656e-01,2.919999957084656e-01,0.000000000000000e+00,0.000000000000000e+00
9.035459838507523e-02,4.645499974412741e+02,8.935361891162583e-02,-3.611919893521038e-05,9.096297780509238e-02,8.939443558464497e-04,5.476075091547802e-03,-4.471900820549259e-06,5.575702070667789e-03,0.000000000000000e+00,0.000000000000000e+00,0.000000000000000e+00,9.999999999997999e+01,5.936241773633602e-14,0.000000000000000e+00,1.871823572029340e-03,0.000000000000000e+00,0.000000000000000e+00,9.624502005296633e-07,1.278000000000000e-09,4.680000000000000e+03,6.000000000000000e-01,1,2.930000126361847e-01,2.930000126361847e-01,0.000000000000000e+00,0.000000000000000e+00
9.022680003044946e-02,4.643500000161217e+02,8.923455167594468e-02,-3.574259271763776e-05,9.082841231486992e-02,8.765590366639227e-04,5.469780496716941e-03,-4.425273384087918e-06,5.568448060079581e-03,0.000000000000000e+00,0.000000000000000e+00,0.000000000000000e+00,9.999999999998001e+01,5.501887810039425e-14,0.000000000000000e+00,1.877270244851799e-03,0.000000000000000e+00,0.000000000000000e+00,9.624915999966700e-07,1.278000000000000e-09,4.680000000000000e+03,6.000000000000000e-01,1,2.939999997615814e-01,2.939999997615814e-01,0.000000000000000e+00,0.000000000000000e+00
9.009900167582369e-02,4.641500025909693e+02,8.911548444026354e-02,-3.536598650006513e-05,9.069384682464743e-02,8.591737174813957e-04,5.463485901886079e-03,-4.378645947626575e-06,5.561194049491374e-03,0.000000000000000e+00,0.000000000000000e+00,0.000000000000000e+00,9.999999999997999e+01,5.067533846445246e-14,0.000000000000000e+00,1.882716917674258e-03,0.000000000000000e+00,0.000000000000000e+00,9.625329994636765e-07,1.278000000000000e-09,4.680000000000000e+03,6.000000000000000e-01,1,2.949999868869781e-01,2.949999868869781e-01,0.000000000000000e+00,0.000000000000000e+00
8.997119951246112e-02,4.639499992053526e+02,8.899641365605659e-02,-3.498936905860810e-05,9.055927732400920e-02,8.417878801693110e-04,5.457191119459259e-03,-4.332017121541450e-06,5.553939822714021e-03,0.000000000000000e+00,0.000000000000000e+00,0.000000000000000e+00,9.999999999998001e+01,4.633166937927556e-14,0.000000000000000e+00,1.888163752822306e-03,0.000000000000000e+00,0.000000000000000e+00,9.625744001644991e-07,1.278000000000000e-09,4.680000000000000e+03,6.000000000000000e-01,1,2.960000038146973e-01,2.960000038146973e-01,0.000000000000000e+00,0.000000000000000e+00
8.984340115783535e-02,4.637500017802002e+02,8.887734642037544e-02,-3.461276284103547e-05,9.042471183378673e-02,8.244025609867839e-04,5.450896524628398e-03,-4.285389685080108e-06,5.546685812125814e-03,0.000000000000000e+00,0.000000000000000e+00,0.000000000000000e+00,9.999999999998001e+01,4.198812974333378e-14,0.000000000000000e+00,1.893610425644765e-03,0.000000000000000e+00,0.000000000000000e+00,9.626157996315058e-07,1.278000000000000e-09,4.680000000000000e+03,6.000000000000000e-01,1,2.969999909400940e-01,2.969999909400940e-01,0.000000000000000e+00,0.000000000000000e+00
8.971559899447278e-02,4.635499983945834e+02,8.875827563616848e-02,-3.423614539957843e-05,9.029014233314850e-02,8.070167236746992e-04,5.444601742201577e-03,-4.238760858994982e-06,5.539431585348462e-03,0.000000000000000e+00,0.000000000000000e+00,0.000000000000000e+00,9.999999999998002e+01,3.764446065815685e-14,0.000000000000000e+00,1.899057260792814e-03,0.000000000000000e+00,0.000000000000000e+00,9.626572003323284e-07,1.278000000000000e-09,4.680000000000000e+03,6.000000000000000e-01,1,2.980000078678131e-01,2.980000078678131e-01,0.000000000000000e+00,0.000000000000000e+00
8.958780063984700e-02,4.633500009694311e+02,8.863920840048733e-02,-3.385953918200581e-05,9.015557684292601e-02,7.896314044921721e-04,5.438307147370716e-03,-4.192133422533640e-06,5.532177574760254e-03,0.000000000000000e+00,0.000000000000000e+00,0.000000000000000e+00,9.999999999998001e+01,3.330092102221507e-14,0.000000000000000e+00,1.904503933615272e-03,0.000000000000000e+00,0.000000000000000e+00,9.626985997993348e-07,1.278000000000000e-09,4.680000000000000e+03,6.000000000000000e-01,1,2.989999949932098e-01,2.989999949932098e-01,0.000000000000000e+00,0.000000000000000e+00
8.945999847648442e-02,4.631499975838142e+02,8.852013761628036e-02,-3.348292174054877e-05,9.002100734228777e-02,7.722455671800874e-04,5.432012364943895e-03,-4.145504596448514e-06,5.524923347982900e-03,0.000000000000000e+00,0.000000000000000e+00,0.000000000000000e+00,9.999999999998001e+01,2.895725193703816e-14,0.000000000000000e+00,1.909950768763321e-03,0.000000000000000e+00,0.000000000000000e+00,9.627400005001577e-07,1.278000000000000e-09,4.680000000000000e+03,6.000000000000000e-01,1,3.000000119209290e-01,3.000000119209290e-01,0.000000000000000e+00,0.000000000000000e+00
8.933220012185866e-02,4.629500001586619e+02,8.840107038059923e-02,-3.310631552297615e-05,8.988644185206529e-02,7.548602479975604e-04,5.425717770113034e-03,-4.098877159987173e-06,5.517669337394694e-03,0.000000000000000e+00,0.000000000000000e+00,0.000000000000000e+00,9.999999999998001e+01,2.461371230109638e-14,0.000000000000000e+00,1.915397441585780e-03,0.000000000000000e+00,0.000000000000000e+00,9.627813999671641e-07,1.278000000000000e-09,4.680000000000000e+03,6.000000000000000e-01,1,3.009999990463257e-01,3.009999990463257e-01,0.000000000000000e+00,0.000000000000000e+00
8.920440176723288e-02,4.627500027335095e+02,8.828200314491809e-02,-3.272970930540352e-05,8.975187636184281e-02,7.374749288150334e-04,5.419423175282172e-03,-4.052249723525830e-06,5.510415326806487e-03,0.000000000000000e+00,0.000000000000000e+00,0.000000000000000e+00,9.999999999998001e+01,2.027017266515460e-14,0.000000000000000e+00,1.920844114408239e-03,0.000000000000000e+00,0.000000000000000e+00,9.628227994341706e-07,1.278000000000000e-09,4.680000000000000e+03,6.000000000000000e-01,1,3.019999861717224e-01,3.019999861717224e-01,0.000000000000000e+00,0.000000000000000e+00
8.907659960387032e-02,4.625499993478927e+02,8.816293236071113e-02,-3.235309186394648e-05,8.961730686120457e-02,7.200890915029486e-04,5.413128392855352e-03,-4.005620897440705e-06,5.503161100029134e-03,0.000000000000000e+00,0.000000000000000e+00,0.000000000000000e+00,9.999999999998001e+01,1.592650357997768e-14,0.000000000000000e+00,1.926290949556287e-03,0.000000000000000e+00,0.000000000000000e+00,9.628642001349932e-07,1.278000000000000e-09,4.680000000000000e+03,6.000000000000000e-01,1,3.030000030994415e-01,3.030000030994415e-01,0.000000000000000e+00,0.000000000000000e+00
8.894880124924454e-02,4.623500019227404e+02,8.804386512502999e-02,-3.197648564637386e-05,8.948274137098210e-02,7.027037723204216e-04,5.406833798024490e-03,-3.958993460979362e-06,5.495907089440926e-03,0.000000000000000e+00,0.000000000000000e+00,0.000000000000000e+00,9.999999999998001e+01,1.158296394403590e-14,0.000000000000000e+00,1.931737622378746e-03,0.000000000000000e+00,0.000000000000000e+00,9.629055996019999e-07,1.278000000000000e-09,4.680000000000000e+03,6.000000000000000e-01,1,3.039999902248383e-01,3.039999902248383e-01,0.000000000000000e+00,0.000000000000000e+00
8.882099908588197e-02,4.621499985371236e+02,8.792479434082301e-02,-3.159986820491682e-05,8.934817187034386e-02,6.853179350083368e-04,5.400539015597670e-03,-3.912364634894237e-06,5.488652862663574e-03,0.000000000000000e+00,0.000000000000000e+00,0.000000000000000e+00,9.999999999998001e+01,7.239294858858998e-15,0.000000000000000e+00,1.937184457526795e-03,0.000000000000000e+00,0.000000000000000e+00,9.629470003028225e-07,1.278000000000000e-09,4.680000000000000e+03,6.000000000000000e-01,1,3.050000071525574e-01,3.050000071525574e-01,0.000000000000000e+00,0.000000000000000e+00
8.869320073125619e-02,4.619500011119712e+02,8.780572710514187e-02,-3.122326198734420e-05,8.921360638012138e-02,6.679326158258098e-04,5.394244420766808e-03,-3.865737198432895e-06,5.481398852075367e-03,0.000000000000000e+00,0.000000000000000e+00,0.000000000000000e+00,9.999999999998001e+01,2.895755222917204e-15,0.000000000000000e+00,1.942631130349254e-03,0.000000000000000e+00,0.000000000000000e+00,9.629883997698289e-07,1.278000000000000e-09,4.680000000000000e+03,6.000000000000000e-01,1,3.059999942779541e-01,3.059999942779541e-01,0.000000000000000e+00,0.000000000000000e+00
8.856539856789362e-02,4.617499977263544e+02,8.768665632093491e-02,-3.084664454588716e-05,8.907903687948314e-02,6.505467785137251e-04,5.387949638339988e-03,-3.819108372347769e-06,5.474144625298013e-03,0.000000000000000e+00,0.000000000000000e+00,0.000000000000000e+00,9.999999999998002e+01,-1.447913862259704e-15,0.000000000000000e+00,1.948077965497302e-03,0.000000000000000e+00,0.000000000000000e+00,9.630298004706518e-07,1.278000000000000e-09,4.680000000000000e+03,6.000000000000000e-01,1,3.070000112056732e-01,3.070000112056732e-01,0.000000000000000e+00,0.000000000000000e+00
8.843760021326785e-02,4.615500003012021e+02,8.756758908525376e-02,-3.047003832831453e-05,8.894447138926066e-02,6.331614593311980e-04,5.381655043509126e-03,-3.772480935886427e-06,5.466890614709807e-03,0.000000000000000e+00,0.000000000000000e+00,0.000000000000000e+00,9.999999999997999e+01,-5.791453498201486e-15,0.000000000000000e+00,1.953524638319762e-03,0.000000000000000e+00,0.000000000000000e+00,9.630711999376582e-07,1.278000000000000e-09,4.680000000000000e+03,6.000000000000000e-01,1,3.079999983310699e-01,3.079999983310699e-01,0.000000000000000e+00,0.000000000000000e+00
8.830980185864208e-02,4.613500028760496e+02,8.744852184957262e-02,-3.009343211074191e-05,8.880990589903819e-02,6.157761401486711e-04,5.375360448678266e-03,-3.725853499425085e-06,5.459636604121599e-03,0.000000000000000e+00,0.000000000000000e+00,0.000000000000000e+00,9.999999999998001e+01,-1.013499313414326e-14,0.000000000000000e+00,1.958971311142220e-03,0.000000000000000e+00,0.000000000000000e+00,9.631125994046647e-07,1.278000000000000e-09,4.680000000000000e+03,6.000000000000000e-01,1,3.089999854564667e-01,3.089999854564667e-01,0.000000000000000e+00,0.000000000000000e+00
8.818199969527951e-02,4.611499994904328e+02,8.732945106536566e-02,-2.971681466928486e-05,8.867533639839995e-02,5.983903028365862e-04,5.369065666251444e-03,-3.679224673339960e-06,5.452382377344247e-03,0.000000000000000e+00,0.000000000000000e+00,0.000000000000000e+00,9.999999999997999e+01,-1.447866221932020e-14,0.000000000000000e+00,1.964418146290268e-03,0.000000000000000e+00,0.000000000000000e+00,9.631540001054875e-07,1.278000000000000e-09,4.680000000000000e+03,6.000000000000000e-01,1,3.100000023841858e-01,3.100000023841858e-01,0.000000000000000e+00,0.000000000000000e+00
8.805420134065373e-02,4.609500020652805e+02,8.721038382968452e-02,-2.934020845171224e-05,8.854077090817747e-02,5.810049836540592e-04,5.362771071420584e-03,-3.632597236878617e-06,5.445128366756039e-03,0.000000000000000e+00,0.000000000000000e+00,0.000000000000000e+00,9.999999999998001e+01,-1.882220185526198e-14,0.000000000000000e+00,1.969864819112728e-03,0.000000000000000e+00,0.000000000000000e+00,9.631953995724940e-07,1.278000000000000e-09,4.680000000000000e+03,6.000000000000000e-01,1,3.109999895095825e-01,3.109999895095825e-01,0.000000000000000e+00,0.000000000000000e+00
8.792639917729117e-02,4.607499986796637e+02,8.709131304547754e-02,-2.896359101025520e-05,8.840620140753924e-02,5.636191463419745e-04,5.356476288993763e-03,-3.585968410793492e-06,5.437874139978686e-03,0.000000000000000e+00,0.000000000000000e+00,0.000000000000000e+00,9.999999999998001e+01,-2.316587094043888e-14,0.000000000000000e+00,1.975311654260776e-03,0.000000000000000e+00,0.000000000000000e+00,9.632368002733166e-07,1.278000000000000e-09,4.680000000000000e+03,6.000000000000000e-01,1,3.120000064373016e-01,3.120000064373016e-01,0.000000000000000e+00,0.000000000000000e+00
8.779860082266540e-02,4.605500012545114e+02,8.697224580979640e-02,-2.858698479268258e-05,8.827163591731675e-02,5.462338271594475e-04,5.350181694162901e-03,-3.539340974332150e-06,5.430620129390479e-03,0.000000000000000e+00,0.000000000000000e+00,0.000000000000000e+00,9.999999999998001e+01,-2.750941057638066e-14,0.000000000000000e+00,1.980758327083235e-03,0.000000000000000e+00,0.000000000000000e+00,9.632781997403233e-07,1.278000000000000e-09,4.680000000000000e+03,6.000000000000000e-01,1,3.129999935626984e-01,3.129999935626984e-01,0.000000000000000e+00,0.000000000000000e+00
8.767079865930281e-02,4.603499978688945e+02,8.685317502558944e-02,-2.821036735122554e-05,8.813706641667851e-02,5.288479898473626e-04,5.343886911736081e-03,-3.492712148247024e-06,5.423365902613126e-03,0.000000000000000e+00,0.000000000000000e+00,0.000000000000000e+00,9.999999999998001e+01,-3.185307966155758e-14,0.000000000000000e+00,1.986205162231284e-03,0.000000000000000e+00,0.000000000000000e+00,9.633196004411459e-07,1.278000000000000e-09,4.680000000000000e+03,6.000000000000000e-01,1,3.140000104904175e-01,3.140000104904175e-01,0.000000000000000e+00,0.000000000000000e+00
8.754300030467704e-02,4.601500004437422e+02,8.673410778990831e-02,-2.783376113365292e-05,8.800250092645603e-02,5.114626706648357e-04,5.337592316905219e-03,-3.446084711785682e-06,5.416111892024919e-03,0.000000000000000e+00,0.000000000000000e+00,0.000000000000000e+00,9.999999999998001e+01,-3.619661929749934e-14,0.000000000000000e+00,1.991651835053742e-03,0.000000000000000e+00,0.000000000000000e+00,9.633609999081523e-07,1.278000000000000e-09,4.680000000000000e+03,6.000000000000000e-01,1,3.149999976158142e-01,3.149999976158142e-01,0.000000000000000e+00,0.000000000000000e+00
8.741519814131447e-02,4.599499970581254e+02,8.661503700570133e-02,-2.745714369219588e-05,8.786793142581779e-02,4.940768333527508e-04,5.331297534478398e-03,-3.399455885700556e-06,5.408857665247567e-03,0.000000000000000e+00,0.000000000000000e+00,0.000000000000000e+00,9.999999999998001e+01,-4.054028838267628e-14,0.000000000000000e+00,1.997098670201791e-03,0.000000000000000e+00,0.000000000000000e+00,9.634024006089750e-07,1.278000000000000e-09,4.680000000000000e+03,6.000000000000000e-01,1,3.160000145435333e-01,3.160000145435333e-01,0.000000000000000e+00,0.000000000000000e+00
8.728739978668872e-02,4.597499996329730e+02,8.649596977002021e-02,-2.708053747462325e-05,8.773336593559532e-02,4.766915141702239e-04,5.325002939647537e-03,-3.352828449239214e-06,5.401603654659358e-03,0.000000000000000e+00,0.000000000000000e+00,0.000000000000000e+00,9.999999999998001e+01,-4.488382801861806e-14,0.000000000000000e+00,2.002545343024250e-03,0.000000000000000e+00,0.000000000000000e+00,9.634438000759816e-07,1.278000000000000e-09,4.680000000000000e+03,6.000000000000000e-01,1,3.170000016689301e-01,3.170000016689301e-01,0.000000000000000e+00,0.000000000000000e+00
8.715960143206294e-02,4.595500022078207e+02,8.637690253433905e-02,-2.670393125705063e-05,8.759880044537284e-02,4.593061949876969e-04,5.318708344816675e-03,-3.306201012777872e-06,5.394349644071152e-03,0.000000000000000e+00,0.000000000000000e+00,0.000000000000000e+00,9.999999999998001e+01,-4.922736765455984e-14,0.000000000000000e+00,2.007992015846709e-03,0.000000000000000e+00,0.000000000000000e+00,9.634851995429881e-07,1.278000000000000e-09,4.680000000000000e+03,6.000000000000000e-01,1,3.179999887943268e-01,3.179999887943268e-01,0.000000000000000e+00,0.000000000000000e+00
8.703179926870036e-02,4.593499988222038e+02,8.625783175013209e-02,-2.632731381559359e-05,8.746423094473460e-02,4.419203576756122e-04,5.312413562389855e-03,-3.259572186692747e-06,5.387095417293798e-03,0.000000000000000e+00,0.000000000000000e+00,0.000000000000000e+00,9.999999999998001e+01,-5.357103673973674e-14,0.000000000000000e+00,2.013438850994757e-03,0.000000000000000e+00,0.000000000000000e+00,9.635266002438109e-07,1.278000000000000e-09,4.680000000000000e+03,6.000000000000000e-01,1,3.190000057220459e-01,3.190000057220459e-01,0.000000000000000e+00,0.000000000000000e+00
8.690400091407459e-02,4.591500013970515e+02,8.613876451445095e-02,-2.595070759802096e-05,8.732966545451212e-02,4.245350384930852e-04,5.306118967558994e-03,-3.212944750231405e-06,5.379841406705592e-03,0.000000000000000e+00,0.000000000000000e+00,0.000000000000000e+00,9.999999999998001e+01,-5.791457637567852e-14,0.000000000000000e+00,2.018885523817216e-03,0.000000000000000e+00,0.000000000000000e+00,9.635679997108172e-07,1.278000000000000e-09,4.680000000000000e+03,6.000000000000000e-01,1,3.199999928474426e-01,3.199999928474426e-01,0.000000000000000e+00,0.000000000000000e+00
8.677619875071227e-02,4.589499980114472e+02,8.601683219379448e-02,-2.573859786569269e-05,8.719654514906254e-02,4.066684635674501e-04,5.299676802347078e-03,-3.186683545276469e-06,5.372706651958882e-03,0.000000000000000e+00,0.000000000000000e+00,0.000000000000000e+00,9.999999999998002e+01,-5.501884875946237e-14,0.000000000000000e+00,2.024077033629563e-03,0.000000000000000e+00,0.000000000000000e+00,9.636094004116375e-07,1.278000000000000e-09,4.680000000000000e+03,6.000000000000000e-01,1,3.210000097751617e-01,3.210000097751617e-01,0.000000000000000e+00,0.000000000000000e+00
8.664840039608675e-02,4.587500005863074e+02,8.589490348647862e-02,-2.552649563109269e-05,8.706342882120392e-02,3.888024176602449e-04,5.293234828069393e-03,-3.160423268611700e-06,5.365572110695235e-03,0.000000000000000e+00,0.000000000000000e+00,0.000000000000000e+00,9.999999999998001e+01,-5.212315566883385e-14,0.000000000000000e+00,2.029268386899526e-03,0.000000000000000e+00,0.000000000000000e+00,9.636507998786416e-07,1.278000000000000e-09,4.680000000000000e+03,6.000000000000000e-01,1,3.219999969005585e-01,3.219999969005585e-01,0.000000000000000e+00,0.000000000000000e+00
8.652059823272443e-02,4.585499972007030e+02,8.577297114535733e-02,-2.531438707527214e-05,8.693030852611852e-02,3.709358392965247e-04,5.286792661803442e-03,-3.134162209319624e-06,5.358437356802952e-03,0.000000000000000e+00,0.000000000000000e+00,0.000000000000000e+00,9.999999999998001e+01,-4.922737627871524e-14,0.000000000000000e+00,2.034459894885866e-03,0.000000000000000e+00,0.000000000000000e+00,9.636922005794617e-07,1.278000000000000e-09,4.680000000000001e+03,6.000000000000000e-01,1,3.230000138282776e-01,3.230000138282776e-01,0.000000000000000e+00,0.000000000000000e+00
8.639279987809891e-02,4.583499997755632e+02,8.565104243804146e-02,-2.510228484067213e-05,8.679719219825992e-02,3.530697933893195e-04,5.280350687525757e-03,-3.107901932654854e-06,5.351302815539305e-03,0.000000000000000e+00,0.000000000000000e+00,0.000000000000000e+00,9.999999999998001e+01,-4.633168318808672e-14,0.000000000000000e+00,2.039651248155830e-03,0.000000000000000e+00,0.000000000000000e+00,9.637336000464658e-07,1.278000000000000e-09,4.680000000000000e+03,6.000000000000000e-01,1,3.240000009536743e-01,3.240000009536743e-01,0.000000000000000e+00,0.000000000000000e+00
8.626500152347338e-02,4.581500023504233e+02,8.552911373072561e-02,-2.489018260607213e-05,8.666407587040131e-02,3.352037474821144e-04,5.273908713248072e-03,-3.081641655990085e-06,5.344168274275658e-03,0.000000000000000e+00,0.000000000000000e+00,0.000000000000000e+00,9.999999999998001e+01,-4.343599009745820e-14,0.000000000000000e+00,2.044842601425793e-03,0.000000000000000e+00,0.000000000000000e+00,9.637749995134697e-07,1.278000000000000e-09,4.680000000000000e+03,6.000000000000000e-01,1,3.249999880790710e-01,3.249999880790710e-01,0.000000000000000e+00,0.000000000000000e+00
8.613719936011105e-02,4.579499989648190e+02,8.540718138960432e-02,-2.467807405025158e-05,8.653095557531591e-02,3.173371691183941e-04,5.267466546982120e-03,-3.055380596698009e-06,5.337033520383374e-03,0.000000000000000e+00,0.000000000000000e+00,0.000000000000000e+00,9.999999999998001e+01,-4.054021070733959e-14,0.000000000000000e+00,2.050034109412132e-03,0.000000000000000e+00,0.000000000000000e+00,9.638164002142900e-07,1.278000000000000e-09,4.680000000000000e+03,6.000000000000000e-01,1,3.260000050067902e-01,3.260000050067902e-01,0.000000000000000e+00,0.000000000000000e+00
8.600940100548554e-02,4.577500015396791e+02,8.528525268228845e-02,-2.446597181565158e-05,8.639783924745729e-02,2.994711232111890e-04,5.261024572704436e-03,-3.029120320033240e-06,5.329898979119727e-03,0.000000000000000e+00,0.000000000000000e+00,0.000000000000000e+00,9.999999999998001e+01,-3.764451761671106e-14,0.000000000000000e+00,2.055225462682096e-03,0.000000000000000e+00,0.000000000000000e+00,9.638577996812939e-07,1.278000000000000e-09,4.680000000000000e+03,6.000000000000000e-01,1,3.269999921321869e-01,3.269999921321869e-01,0.000000000000000e+00,0.000000000000000e+00
8.588159884212321e-02,4.575499981540748e+02,8.516332034116716e-02,-2.425386325983102e-05,8.626471895237189e-02,2.816045448474687e-04,5.254582406438484e-03,-3.002859260741165e-06,5.322764225227443e-03,0.000000000000000e+00,0.000000000000000e+00,0.000000000000000e+00,9.999999999998001e+01,-3.474873822659246e-14,0.000000000000000e+00,2.060416970668435e-03,0.000000000000000e+00,0.000000000000000e+00,9.638992003821142e-07,1.278000000000000e-09,4.680000000000000e+03,6.000000000000000e-01,1,3.280000090599060e-01,3.280000090599060e-01,0.000000000000000e+00,0.000000000000000e+00
8.575380048749769e-02,4.573500007289350e+02,8.504139163385130e-02,-2.404176102523102e-05,8.613160262451328e-02,2.637384989402636e-04,5.248140432160799e-03,-2.976598984076395e-06,5.315629683963798e-03,0.000000000000000e+00,0.000000000000000e+00,0.000000000000000e+00,9.999999999997999e+01,-3.185304513596394e-14,0.000000000000000e+00,2.065608323938399e-03,0.000000000000000e+00,0.000000000000000e+00,9.639405998491181e-07,1.278000000000000e-09,4.680000000000000e+03,6.000000000000000e-01,1,3.289999961853027e-01,3.289999961853027e-01,0.000000000000000e+00,0.000000000000000e+00
8.562599832413537e-02,4.571499973433306e+02,8.491945929273001e-02,-2.382965246941047e-05,8.599848232942787e-02,2.458719205765433e-04,5.241698265894848e-03,-2.950337924784319e-06,5.308494930071514e-03,0.000000000000000e+00,0.000000000000000e+00,0.000000000000000e+00,9.999999999998001e+01,-2.895726574584532e-14,0.000000000000000e+00,2.070799831924738e-03,0.000000000000000e+00,0.000000000000000e+00,9.639820005499382e-07,1.278000000000000e-09,4.680000000000000e+03,6.000000000000000e-01,1,3.300000131130219e-01,3.300000131130219e-01,0.000000000000000e+00,0.000000000000000e+00
8.549819996950986e-02,4.569499999181908e+02,8.479753058541417e-02,-2.361755023481047e-05,8.586536600156928e-02,2.280058746693383e-04,5.235256291617163e-03,-2.924077648119551e-06,5.301360388807868e-03,0.000000000000000e+00,0.000000000000000e+00,0.000000000000000e+00,9.999999999998002e+01,-2.606157265521681e-14,0.000000000000000e+00,2.075991185194702e-03,0.000000000000000e+00,0.000000000000000e+00,9.640234000169423e-07,1.278000000000000e-09,4.680000000000000e+03,6.000000000000000e-01,1,3.310000002384186e-01,3.310000002384186e-01,0.000000000000000e+00,0.000000000000000e+00
8.537040161488432e-02,4.567500024930509e+02,8.467560187809829e-02,-2.340544800021047e-05,8.573224967371067e-02,2.101398287621331e-04,5.228814317339478e-03,-2.897817371454781e-06,5.294225847544219e-03,0.000000000000000e+00,0.000000000000000e+00,0.000000000000000e+00,9.999999999997999e+01,-2.316587956458829e-14,0.000000000000000e+00,2.081182538464666e-03,0.000000000000000e+00,0.000000000000000e+00,9.640647994839462e-07,1.278000000000000e-09,4.680000000000000e+03,6.000000000000000e-01,1,3.319999873638153e-01,3.319999873638153e-01,0.000000000000000e+00,0.000000000000000e+00
8.524259945152202e-02,4.565499991074466e+02,8.455366953697702e-02,-2.319333944438991e-05,8.559912937862527e-02,1.922732503984129e-04,5.222372151073526e-03,-2.871556312162705e-06,5.287091093651938e-03,0.000000000000000e+00,0.000000000000000e+00,0.000000000000000e+00,9.999999999998001e+01,-2.027010017446968e-14,0.000000000000000e+00,2.086374046451005e-03,0.000000000000000e+00,0.000000000000000e+00,9.641062001847665e-07,1.278000000000000e-09,4.680000000000000e+03,6.000000000000000e-01,1,3.330000042915344e-01,3.330000042915344e-01,0.000000000000000e+00,0.000000000000000e+00
8.511480109689648e-02,4.563500016823068e+02,8.443174082966115e-02,-2.298123720978991e-05,8.546601305076666e-02,1.744072044912077e-04,5.215930176795841e-03,-2.845296035497936e-06,5.279956552388289e-03,0.000000000000000e+00,0.000000000000000e+00,0.000000000000000e+00,9.999999999997999e+01,-1.737440708384115e-14,0.000000000000000e+00,2.091565399720969e-03,0.000000000000000e+00,0.000000000000000e+00,9.641475996517705e-07,1.278000000000000e-09,4.680000000000000e+03,5.999999999999999e-01,1,3.339999914169312e-01,3.339999914169312e-01,0.000000000000000e+00,0.000000000000000e+00
8.498699893353416e-02,4.561499982967025e+02,8.430980848853986e-02,-2.276912865396935e-05,8.533289275568126e-02,1.565406261274875e-04,5.209488010529890e-03,-2.819034976205860e-06,5.272821798496006e-03,0.000000000000000e+00,0.000000000000000e+00,0.000000000000000e+00,9.999999999998001e+01,-1.447862769372255e-14,0.000000000000000e+00,2.096756907707308e-03,0.000000000000000e+00,0.000000000000000e+00,9.641890003525907e-07,1.278000000000000e-09,4.680000000000000e+03,6.000000000000000e-01,1,3.350000083446503e-01,3.350000083446503e-01,0.000000000000000e+00,0.000000000000000e+00
8.485920057890864e-02,4.559500008715626e+02,8.418787978122400e-02,-2.255702641936935e-05,8.519977642782264e-02,1.386745802202823e-04,5.203046036252205e-03,-2.792774699541091e-06,5.265687257232359e-03,0.000000000000000e+00,0.000000000000000e+00,0.000000000000000e+00,9.999999999997999e+01,-1.158293460309402e-14,0.000000000000000e+00,2.101948260977272e-03,0.000000000000000e+00,0.000000000000000e+00,9.642303998195949e-07,1.278000000000000e-09,4.680000000000000e+03,5.999999999999999e-01,1,3.359999954700470e-01,3.359999954700470e-01,0.000000000000000e+00,0.000000000000000e+00
8.473139841554632e-02,4.557499974859583e+02,8.406594744010271e-02,-2.234491786354880e-05,8.506665613273726e-02,1.208080018565621e-04,5.196603869986254e-03,-2.766513640249015e-06,5.258552503340076e-03,0.000000000000000e+00,0.000000000000000e+00,0.000000000000000e+00,9.999999999998001e+01,-8.687155212975417e-15,0.000000000000000e+00,2.107139768963611e-03,0.000000000000000e+00,0.000000000000000e+00,9.642718005204149e-07,1.278000000000000e-09,4.680000000000000e+03,6.000000000000000e-01,1,3.370000123977661e-01,3.370000123977661e-01,0.000000000000000e+00,0.000000000000000e+00
8.460360006092080e-02,4.555500000608184e+02,8.394401873278687e-02,-2.213281562894880e-05,8.493353980487864e-02,1.029419559493570e-04,5.190161895708569e-03,-2.740253363584246e-06,5.251417962076430e-03,0.000000000000000e+00,0.000000000000000e+00,0.000000000000000e+00,9.999999999998002e+01,-5.791462122346907e-15,0.000000000000000e+00,2.112331122233575e-03,0.000000000000000e+00,0.000000000000000e+00,9.643131999874189e-07,1.278000000000000e-09,4.680000000000000e+03,6.000000000000000e-01,1,3.379999995231628e-01,3.379999995231628e-01,0.000000000000000e+00,0.000000000000000e+00
8.447580170629528e-02,4.553500026356786e+02,8.382209002547100e-02,-2.192071339434880e-05,8.480042347702002e-02,8.507591004215179e-05,5.183719921430883e-03,-2.713993086919477e-06,5.244283420812783e-03,0.000000000000000e+00,0.000000000000000e+00,0.000000000000000e+00,9.999999999998001e+01,-2.895769031718381e-15,0.000000000000000e+00,2.117522475503539e-03,0.000000000000000e+00,0.000000000000000e+00,9.643545994544230e-07,1.278000000000000e-09,4.680000000000000e+03,6.000000000000000e-01,1,3.389999866485596e-01,3.389999866485596e-01,0.000000000000000e+00,0.000000000000000e+00
8.434799954293296e-02,4.551499992500743e+02,8.370015768434971e-02,-2.170860483852824e-05,8.466730318193463e-02,6.720933167843156e-05,5.177277755164932e-03,-2.687732027627401e-06,5.237148666920498e-03,0.000000000000000e+00,0.000000000000000e+00,0.000000000000000e+00,9.999999999998001e+01,1.035840023239520e-20,0.000000000000000e+00,2.122713983489878e-03,0.000000000000000e+00,0.000000000000000e+00,9.643960001552433e-07,1.278000000000000e-09,4.680000000000000e+03,6.000000000000000e-01,1,3.400000035762787e-01,3.400000035762787e-01,0.000000000000000e+00,0.000000000000000e+00
8.422020118830743e-02,4.549500018249344e+02,8.357822897703385e-02,-2.149650260392824e-05,8.453418685407603e-02,4.934328577122640e-05,5.170835780887248e-03,-2.661471750962632e-06,5.230014125656853e-03,0.000000000000000e+00,0.000000000000000e+00,0.000000000000000e+00,9.999999999998001e+01,2.895703449028756e-15,0.000000000000000e+00,2.127905336759842e-03,0.000000000000000e+00,0.000000000000000e+00,9.644373996222472e-07,1.278000000000000e-09,4.680000000000000e+03,6.000000000000000e-01,1,3.409999907016754e-01,3.409999907016754e-01,0.000000000000000e+00,0.000000000000000e+00
8.409239902494511e-02,4.547499984393301e+02,8.345629663591256e-02,-2.128439404810769e-05,8.440106655899063e-02,3.147670740750625e-05,5.164393614621295e-03,-2.635210691670556e-06,5.222879371764568e-03,0.000000000000000e+00,0.000000000000000e+00,0.000000000000000e+00,9.999999999998001e+01,5.791482839147356e-15,0.000000000000000e+00,2.133096844746181e-03,0.000000000000000e+00,0.000000000000000e+00,9.644788003230673e-07,1.278000000000000e-09,4.680000000000000e+03,6.000000000000000e-01,1,3.420000076293945e-01,3.420000076293945e-01,0.000000000000000e+00,0.000000000000000e+00
8.396460067031959e-02,4.545500010141902e+02,8.333436792859669e-02,-2.107229181350768e-05,8.426795023113201e-02,1.361066150030101e-05,5.157951640343611e-03,-2.608950415005787e-06,5.215744830500923e-03,0.000000000000000e+00,0.000000000000000e+00,0.000000000000000e+00,9.999999999998001e+01,8.687175929775885e-15,0.000000000000000e+00,2.138288198016145e-03,0.000000000000000e+00,0.000000000000000e+00,9.645201997900714e-07,1.278000000000000e-09,4.680000000000000e+03,6.000000000000000e-01,1,3.429999947547913e-01,3.429999947547913e-01,0.000000000000000e+00,0.000000000000000e+00
8.383679850695727e-02,4.543499976285859e+02,8.321243558747540e-02,-2.086018325768713e-05,8.413482993604662e-02,-4.255916863419164e-06,5.151509474077659e-03,-2.582689355713711e-06,5.208610076608639e-03,0.000000000000000e+00,0.000000000000000e+00,0.000000000000000e+00,9.999999999998001e+01,1.158295531989449e-14,0.000000000000000e+00,2.143479706002484e-03,0.000000000000000e+00,0.000000000000000e+00,9.645616004908917e-07,1.278000000000000e-09,4.680000000000000e+03,6.000000000000000e-01,1,3.440000116825104e-01,3.440000116825104e-01,0.000000000000000e+00,0.000000000000000e+00
8.370900015233175e-02,4.541500002034461e+02,8.309050688015955e-02,-2.064808102308713e-05,8.400171360818801e-02,-2.212196277062437e-05,5.145067499799974e-03,-2.556429079048942e-06,5.201475535344991e-03,0.000000000000000e+00,0.000000000000000e+00,0.000000000000000e+00,9.999999999998001e+01,1.447864841052302e-14,0.000000000000000e+00,2.148671059272448e-03,0.000000000000000e+00,0.000000000000000e+00,9.646029999578956e-07,1.278000000000000e-09,4.680000000000000e+03,6.000000000000000e-01,1,3.449999988079071e-01,3.449999988079071e-01,0.000000000000000e+00,0.000000000000000e+00
8.358120179770623e-02,4.539500027783062e+02,8.296857817284370e-02,-2.043597878848713e-05,8.386859728032940e-02,-3.998800867782945e-05,5.138625525522290e-03,-2.530168802384173e-06,5.194340994081345e-03,0.000000000000000e+00,0.000000000000000e+00,0.000000000000000e+00,9.999999999997999e+01,1.737434150115152e-14,0.000000000000000e+00,2.153862412542411e-03,0.000000000000000e+00,0.000000000000000e+00,9.646443994248995e-07,1.278000000000000e-09,4.680000000000000e+03,6.000000000000000e-01,1,3.459999859333038e-01,3.459999859333038e-01,0.000000000000000e+00,0.000000000000000e+00
8.345339963434389e-02,4.537499993927019e+02,8.284664583172240e-02,-2.022387023266657e-05,8.373547698524400e-02,-5.785458704154968e-05,5.132183359256338e-03,-2.503907743092097e-06,5.187206240189061e-03,0.000000000000000e+00,0.000000000000000e+00,0.000000000000000e+00,9.999999999998001e+01,2.027012089127014e-14,0.000000000000000e+00,2.159053920528751e-03,0.000000000000000e+00,0.000000000000000e+00,9.646858001257198e-07,1.278000000000000e-09,4.680000000000000e+03,6.000000000000000e-01,1,3.470000028610229e-01,3.470000028610229e-01,0.000000000000000e+00,0.000000000000000e+00
8.332560127971839e-02,4.535500019675621e+02,8.272471712440654e-02,-2.001176799806657e-05,8.360236065738538e-02,-7.572063294875476e-05,5.125741384978653e-03,-2.477647466427328e-06,5.180071698925415e-03,0.000000000000000e+00,0.000000000000000e+00,0.000000000000000e+00,9.999999999998001e+01,2.316581398189865e-14,0.000000000000000e+00,2.164245273798714e-03,0.000000000000000e+00,0.000000000000000e+00,9.647271995927237e-07,1.278000000000000e-09,4.680000000000000e+03,6.000000000000000e-01,1,3.479999899864197e-01,3.479999899864197e-01,0.000000000000000e+00,0.000000000000000e+00
8.319779911635607e-02,4.533499985819577e+02,8.260278478328525e-02,-1.979965944224602e-05,8.346924036229998e-02,-9.358721131247507e-05,5.119299218712701e-03,-2.451386407135252e-06,5.172936945033131e-03,0.000000000000000e+00,0.000000000000000e+00,0.000000000000000e+00,9.999999999997999e+01,2.606159337201727e-14,0.000000000000000e+00,2.169436781785054e-03,0.000000000000000e+00,0.000000000000000e+00,9.647686002935440e-07,1.278000000000000e-09,4.680000000000000e+03,6.000000000000000e-01,1,3.490000069141388e-01,3.490000069141388e-01,0.000000000000000e+00,0.000000000000000e+00
8.307000076173054e-02,4.531500011568179e+02,8.248085607596939e-02,-1.958755720764602e-05,8.333612403444138e-02,-1.114532572196802e-04,5.112857244435017e-03,-2.425126130470483e-06,5.165802403769485e-03,0.000000000000000e+00,0.000000000000000e+00,0.000000000000000e+00,9.999999999998001e+01,2.895728646264579e-14,0.000000000000000e+00,2.174628135055017e-03,0.000000000000000e+00,0.000000000000000e+00,9.648099997605479e-07,1.278000000000000e-09,4.680000000000000e+03,6.000000000000000e-01,1,3.499999940395355e-01,3.499999940395355e-01,0.000000000000000e+00,0.000000000000000e+00
8.294219859836822e-02,4.529499977712135e+02,8.235892373484810e-02,-1.937544865182546e-05,8.320300373935598e-02,-1.293198355834005e-04,5.106415078169065e-03,-2.398865071178407e-06,5.158667649877201e-03,0.000000000000000e+00,0.000000000000000e+00,0.000000000000000e+00,9.999999999998001e+01,3.185306585276440e-14,0.000000000000000e+00,2.179819643041357e-03,0.000000000000000e+00,0.000000000000000e+00,9.648514004613682e-07,1.278000000000000e-09,4.680000000000000e+03,6.000000000000000e-01,1,3.510000109672546e-01,3.510000109672546e-01,0.000000000000000e+00,0.000000000000000e+00
8.281440024374269e-02,4.527500003460738e+02,8.223699502753225e-02,-1.916334641722546e-05,8.306988741149736e-02,-1.471858814906055e-04,5.099973103891380e-03,-2.372604794513638e-06,5.151533108613555e-03,0.000000000000000e+00,0.000000000000000e+00,0.000000000000000e+00,9.999999999998001e+01,3.474875894339291e-14,0.000000000000000e+00,2.185010996311321e-03,0.000000000000000e+00,0.000000000000000e+00,9.648927999283724e-07,1.278000000000000e-09,4.680000000000000e+03,6.000000000000000e-01,1,3.519999980926514e-01,3.519999980926514e-01,0.000000000000000e+00,0.000000000000000e+00
8.268660188911717e-02,4.525500029209339e+02,8.211506632021638e-02,-1.895124418262546e-05,8.293677108363876e-02,-1.650519273978108e-04,5.093531129613695e-03,-2.346344517848869e-06,5.144398567349907e-03,0.000000000000000e+00,0.000000000000000e+00,0.000000000000000e+00,9.999999999998001e+01,3.764445203402144e-14,0.000000000000000e+00,2.190202349581284e-03,0.000000000000000e+00,0.000000000000000e+00,9.649341993953763e-07,1.278000000000000e-09,4.680000000000000e+03,6.000000000000000e-01,1,3.529999852180481e-01,3.529999852180481e-01,0.000000000000000e+00,0.000000000000000e+00
8.255879972575486e-02,4.523499995353296e+02,8.199313397909509e-02,-1.873913562680490e-05,8.280365078855335e-02,-1.829185057615310e-04,5.087088963347744e-03,-2.320083458556793e-06,5.137263813457624e-03,0.000000000000000e+00,0.000000000000000e+00,0.000000000000000e+00,9.999999999998001e+01,4.054023142414005e-14,0.000000000000000e+00,2.195393857567624e-03,0.000000000000000e+00,0.000000000000000e+00,9.649756000961963e-07,1.278000000000000e-09,4.680000000000000e+03,6.000000000000000e-01,1,3.540000021457672e-01,3.540000021457672e-01,0.000000000000000e+00,0.000000000000000e+00
8.243100137112933e-02,4.521500021101897e+02,8.187120527177924e-02,-1.852703339220491e-05,8.267053446069475e-02,-2.007845516687361e-04,5.080646989070058e-03,-2.293823181892024e-06,5.130129272193977e-03,0.000000000000000e+00,0.000000000000000e+00,0.000000000000000e+00,9.999999999998001e+01,4.343592451476856e-14,0.000000000000000e+00,2.200585210837587e-03,0.000000000000000e+00,0.000000000000000e+00,9.650169995632005e-07,1.278000000000000e-09,4.680000000000000e+03,6.000000000000000e-01,1,3.549999892711639e-01,3.549999892711639e-01,0.000000000000000e+00,0.000000000000000e+00
8.230319920776701e-02,4.519499987245854e+02,8.174927293065795e-02,-1.831492483638435e-05,8.253741416560935e-02,-2.186511300324563e-04,5.074204822804108e-03,-2.267562122599948e-06,5.122994518301694e-03,0.000000000000000e+00,0.000000000000000e+00,0.000000000000000e+00,9.999999999998001e+01,4.633170390488718e-14,0.000000000000000e+00,2.205776718823927e-03,0.000000000000000e+00,0.000000000000000e+00,9.650584002640205e-07,1.278000000000000e-09,4.680000000000000e+03,6.000000000000000e-01,1,3.560000061988831e-01,3.560000061988831e-01,0.000000000000000e+00,0.000000000000000e+00
8.217540085314148e-02,4.517500012994455e+02,8.162734422334209e-02,-1.810282260178435e-05,8.240429783775073e-02,-2.365171759396615e-04,5.067762848526422e-03,-2.241301845935179e-06,5.115859977038047e-03,0.000000000000000e+00,0.000000000000000e+00,0.000000000000000e+00,9.999999999998001e+01,4.922739699551569e-14,0.000000000000000e+00,2.210968072093890e-03,0.000000000000000e+00,0.000000000000000e+00,9.650997997310247e-07,1.278000000000000e-09,4.680000000000000e+03,6.000000000000000e-01,1,3.569999933242798e-01,3.569999933242798e-01,0.000000000000000e+00,0.000000000000000e+00
8.204759868977916e-02,4.515499979138412e+02,8.150541188222080e-02,-1.789071404596379e-05,8.227117754266534e-02,-2.543837543033818e-04,5.061320682260471e-03,-2.215040786643103e-06,5.108725223145764e-03,0.000000000000000e+00,0.000000000000000e+00,0.000000000000000e+00,9.999999999997999e+01,5.212317638563432e-14,0.000000000000000e+00,2.216159580080230e-03,0.000000000000000e+00,0.000000000000000e+00,9.651412004318448e-07,1.278000000000000e-09,4.680000000000000e+03,6.000000000000000e-01,1,3.580000102519989e-01,3.580000102519989e-01,0.000000000000000e+00,0.000000000000000e+00
8.191980033515364e-02,4.513500004887014e+02,8.138348317490493e-02,-1.767861181136379e-05,8.213806121480673e-02,-2.722498002105869e-04,5.054878707982786e-03,-2.188780509978334e-06,5.101590681882117e-03,0.000000000000000e+00,0.000000000000000e+00,0.000000000000000e+00,9.999999999998001e+01,5.501886947626283e-14,0.000000000000000e+00,2.221350933350194e-03,0.000000000000000e+00,0.000000000000000e+00,9.651825998988489e-07,1.278000000000000e-09,4.680000000000000e+03,6.000000000000000e-01,1,3.589999973773956e-01,3.589999973773956e-01,0.000000000000000e+00,0.000000000000000e+00
8.179199817179132e-02,4.511499971030970e+02,8.126155080455612e-02,-1.746650328927307e-05,8.200494094115766e-02,-2.901163816528971e-04,5.048436540098089e-03,-2.162519454862333e-06,5.094455929507424e-03,0.000000000000000e+00,0.000000000000000e+00,0.000000000000000e+00,9.999999999997999e+01,5.791451423070674e-14,0.000000000000000e+00,2.226542437606872e-03,0.000000000000000e+00,0.000000000000000e+00,9.652240005996690e-07,1.278000000000000e-09,4.680000000000000e+03,6.000000000000000e-01,1,3.600000143051147e-01,3.600000143051147e-01,0.000000000000000e+00,0.000000000000000e+00
8.166419981716580e-02,4.509499996779722e+02,8.113757909930788e-02,-1.725675876251591e-05,8.187332300801684e-02,-3.081976202859937e-04,5.041881415974309e-03,-2.136551084882884e-06,5.087427467466457e-03,0.000000000000000e+00,0.000000000000000e+00,0.000000000000000e+00,9.999999999998001e+01,5.139920477679183e-14,0.000000000000000e+00,2.231473088486593e-03,0.000000000000000e+00,0.000000000000000e+00,9.652654000666705e-07,1.278000000000000e-09,4.680000000000000e+03,6.000000000000000e-01,1,3.610000014305115e-01,3.610000014305115e-01,0.000000000000000e+00,0.000000000000000e+00
8.153640146254028e-02,4.507500022528474e+02,8.101360739405965e-02,-1.704701423575875e-05,8.174170507487599e-02,-3.262788589190902e-04,5.035326291850526e-03,-2.110582714903434e-06,5.080399005425490e-03,0.000000000000000e+00,0.000000000000000e+00,0.000000000000000e+00,9.999999999998002e+01,4.488389532287691e-14,0.000000000000000e+00,2.236403739366315e-03,0.000000000000000e+00,0.000000000000000e+00,9.653067995336721e-07,1.278000000000000e-09,4.680000000000000e+03,6.000000000000000e-01,1,3.619999885559082e-01,3.619999885559082e-01,0.000000000000000e+00,0.000000000000000e+00
8.140859929917796e-02,4.505499988672581e+02,8.088963199411911e-02,-1.683726345804710e-05,8.161008321916458e-02,-3.443606364220274e-04,5.028770972366306e-03,-2.084613570996287e-06,5.073370333917335e-03,0.000000000000000e+00,0.000000000000000e+00,0.000000000000000e+00,9.999999999998001e+01,3.836839169510928e-14,0.000000000000000e+00,2.241334537192775e-03,0.000000000000000e+00,0.000000000000000e+00,9.653482002344897e-07,1.278000000000000e-09,4.680000000000000e+03,6.000000000000000e-01,1,3.630000054836273e-01,3.630000054836273e-01,0.000000000000000e+00,0.000000000000000e+00
8.128080094455244e-02,4.503500014421332e+02,8.076566028887087e-02,-1.662751893128994e-05,8.147846528602373e-02,-3.624418750551239e-04,5.022215848242524e-03,-2.058645201016837e-06,5.066341871876366e-03,0.000000000000000e+00,0.000000000000000e+00,0.000000000000000e+00,9.999999999998001e+01,3.185308224119437e-14,0.000000000000000e+00,2.246265188072496e-03,0.000000000000000e+00,0.000000000000000e+00,9.653895997014913e-07,1.278000000000000e-09,4.680000000000000e+03,6.000000000000001e-01,1,3.639999926090240e-01,3.639999926090240e-01,0.000000000000000e+00,0.000000000000000e+00
8.115299878119012e-02,4.501499980565439e+02,8.064168488893034e-02,-1.641776815357829e-05,8.134684343031232e-02,-3.805236525580611e-04,5.015660528758304e-03,-2.032676057109690e-06,5.059313200368211e-03,0.000000000000000e+00,0.000000000000000e+00,0.000000000000000e+00,9.999999999998002e+01,2.533757861342674e-14,0.000000000000000e+00,2.251195985898956e-03,0.000000000000000e+00,0.000000000000000e+00,9.654310004023090e-07,1.278000000000000e-09,4.680000000000000e+03,6.000000000000000e-01,1,3.650000095367432e-01,3.650000095367432e-01,0.000000000000000e+00,0.000000000000000e+00
8.102520042656459e-02,4.499500006314190e+02,8.051771318368210e-02,-1.620802362682113e-05,8.121522549717147e-02,-3.986048911911576e-04,5.009105404634521e-03,-2.006707687130240e-06,5.052284738327244e-03,0.000000000000000e+00,0.000000000000000e+00,0.000000000000000e+00,9.999999999998001e+01,1.882226915951182e-14,0.000000000000000e+00,2.256126636778677e-03,0.000000000000000e+00,0.000000000000000e+00,9.654723998693104e-07,1.278000000000000e-09,4.680000000000000e+03,6.000000000000000e-01,1,3.659999966621399e-01,3.659999966621399e-01,0.000000000000000e+00,0.000000000000000e+00
8.089739826320227e-02,4.497499972458297e+02,8.039373778374156e-02,-1.599827284910948e-05,8.108360364146006e-02,-4.166866686940949e-04,5.002550085150301e-03,-1.980738543223093e-06,5.045256066819089e-03,0.000000000000000e+00,0.000000000000000e+00,0.000000000000000e+00,9.999999999998001e+01,1.230676553174418e-14,0.000000000000000e+00,2.261057434605137e-03,0.000000000000000e+00,0.000000000000000e+00,9.655138005701281e-07,1.278000000000000e-09,4.680000000000000e+03,6.000000000000000e-01,1,3.670000135898590e-01,3.670000135898590e-01,0.000000000000000e+00,0.000000000000000e+00
8.076959990857675e-02,4.495499998207048e+02,8.026976607849332e-02,-1.578852832235232e-05,8.095198570831921e-02,-4.347679073271914e-04,4.995994961026519e-03,-1.954770173243644e-06,5.038227604778121e-03,0.000000000000000e+00,0.000000000000000e+00,0.000000000000000e+00,9.999999999998002e+01,5.791456077829272e-15,0.000000000000000e+00,2.265988085484858e-03,0.000000000000000e+00,0.000000000000000e+00,9.655552000371297e-07,1.278000000000000e-09,4.680000000000000e+03,6.000000000000000e-01,1,3.680000007152557e-01,3.680000007152557e-01,0.000000000000000e+00,0.000000000000000e+00
8.064180155395123e-02,4.493500023955800e+02,8.014579437324509e-02,-1.557878379559516e-05,8.082036777517837e-02,-4.528491459602880e-04,4.989439836902736e-03,-1.928801803264195e-06,5.031199142737154e-03,0.000000000000000e+00,0.000000000000000e+00,0.000000000000000e+00,9.999999999998001e+01,-7.238533760856465e-16,0.000000000000000e+00,2.270918736364579e-03,0.000000000000000e+00,0.000000000000000e+00,9.655965995041313e-07,1.278000000000000e-09,4.680000000000000e+03,6.000000000000000e-01,1,3.689999878406525e-01,3.689999878406525e-01,0.000000000000000e+00,0.000000000000000e+00
8.051399939058890e-02,4.491499990099907e+02,8.002181897330456e-02,-1.536903301788351e-05,8.068874591946695e-02,-4.709309234632251e-04,4.982884517418517e-03,-1.902832659357047e-06,5.024170471228998e-03,0.000000000000000e+00,0.000000000000000e+00,0.000000000000000e+00,9.999999999998001e+01,-7.239357003853275e-15,0.000000000000000e+00,2.275849534191039e-03,0.000000000000000e+00,0.000000000000000e+00,9.656380002049488e-07,1.278000000000000e-09,4.680000000000000e+03,6.000000000000000e-01,1,3.700000047683716e-01,3.700000047683716e-01,0.000000000000000e+00,0.000000000000000e+00
8.038620103596338e-02,4.489500015848658e+02,7.989784726805632e-02,-1.515928849112635e-05,8.055712798632612e-02,-4.890121620963216e-04,4.976329393294734e-03,-1.876864289377597e-06,5.017142009188031e-03,0.000000000000000e+00,0.000000000000000e+00,0.000000000000000e+00,9.999999999998002e+01,-1.375466645776820e-14,0.000000000000000e+00,2.280780185070760e-03,0.000000000000000e+00,0.000000000000000e+00,9.656793996719504e-07,1.278000000000000e-09,4.680000000000000e+03,6.000000000000000e-01,1,3.709999918937683e-01,3.709999918937683e-01,0.000000000000000e+00,0.000000000000000e+00
8.025839887260106e-02,4.487499981992764e+02,7.977387186811578e-02,-1.494953771341470e-05,8.042550613061469e-02,-5.070939395992589e-04,4.969774073810515e-03,-1.850895145470450e-06,5.010113337679875e-03,0.000000000000000e+00,0.000000000000000e+00,0.000000000000000e+00,9.999999999998001e+01,-2.027017008553582e-14,0.000000000000000e+00,2.285710982897220e-03,0.000000000000000e+00,0.000000000000000e+00,9.657208003727682e-07,1.278000000000000e-09,4.680000000000000e+03,6.000000000000000e-01,1,3.720000088214874e-01,3.720000088214874e-01,0.000000000000000e+00,0.000000000000000e+00
8.013060051797553e-02,4.485500007741516e+02,7.964990016286755e-02,-1.473979318665754e-05,8.029388819747386e-02,-5.251751782323554e-04,4.963218949686732e-03,-1.824926775491001e-06,5.003084875638908e-03,0.000000000000000e+00,0.000000000000000e+00,0.000000000000000e+00,9.999999999997999e+01,-2.678547953945075e-14,0.000000000000000e+00,2.290641633776941e-03,0.000000000000000e+00,0.000000000000000e+00,9.657621998397696e-07,1.278000000000000e-09,4.680000000000000e+03,6.000000000000000e-01,1,3.729999959468842e-01,3.729999959468842e-01,0.000000000000000e+00,0.000000000000000e+00
8.000279835461321e-02,4.483499973885623e+02,7.952592476292701e-02,-1.453004240894590e-05,8.016226634176245e-02,-5.432569557352927e-04,4.956663630202512e-03,-1.798957631583854e-06,4.996056204130754e-03,0.000000000000000e+00,0.000000000000000e+00,0.000000000000000e+00,9.999999999998001e+01,-3.330098316721836e-14,0.000000000000000e+00,2.295572431603402e-03,0.000000000000000e+00,0.000000000000000e+00,9.658036005405873e-07,1.278000000000000e-09,4.680000000000000e+03,6.000000000000001e-01,1,3.740000128746033e-01,3.740000128746033e-01,0.000000000000000e+00,0.000000000000000e+00
7.987499999998768e-02,4.481499999634374e+02,7.940195305767878e-02,-1.432029788218873e-05,8.003064840862159e-02,-5.613381943683891e-04,4.950108506078729e-03,-1.772989261604404e-06,4.989027742089785e-03,0.000000000000000e+00,0.000000000000000e+00,0.000000000000000e+00,9.999999999997999e+01,-3.981629262113329e-14,0.000000000000000e+00,2.300503082483123e-03,0.000000000000000e+00,0.000000000000000e+00,9.658450000075887e-07,1.278000000000000e-09,4.680000000000000e+03,6.000000000000000e-01,1,3.750000000000000e-01,3.750000000000000e-01,0.000000000000000e+00,0.000000000000000e+00
7.974720164536217e-02,4.479500025383127e+02,7.927798135243053e-02,-1.411055335543157e-05,7.989903047548076e-02,-5.794194330014858e-04,4.943553381954947e-03,-1.747020891624954e-06,4.981999280048818e-03,0.000000000000000e+00,0.000000000000000e+00,0.000000000000000e+00,9.999999999998001e+01,-4.633160207504821e-14,0.000000000000000e+00,2.305433733362844e-03,0.000000000000000e+00,0.000000000000000e+00,9.658863994745903e-07,1.278000000000000e-09,4.680000000000000e+03,6.000000000000000e-01,1,3.759999871253967e-01,3.759999871253967e-01,0.000000000000000e+00,0.000000000000000e+00
7.961939948199984e-02,4.477499991527233e+02,7.915400595249000e-02,-1.390080257771992e-05,7.976740861976933e-02,-5.975012105044229e-04,4.936998062470727e-03,-1.721051747717807e-06,4.974970608540663e-03,0.000000000000000e+00,0.000000000000000e+00,0.000000000000000e+00,9.999999999997999e+01,-5.284710570281583e-14,0.000000000000000e+00,2.310364531189304e-03,0.000000000000000e+00,0.000000000000000e+00,9.659278001754080e-07,1.278000000000000e-09,4.680000000000000e+03,6.000000000000000e-01,1,3.770000040531158e-01,3.770000040531158e-01,0.000000000000000e+00,0.000000000000000e+00
7.949160112737433e-02,4.475500017275984e+02,7.903003424724177e-02,-1.369105805096276e-05,7.963579068662852e-02,-6.155824491375194e-04,4.930442938346945e-03,-1.695083377738358e-06,4.967942146499696e-03,0.000000000000000e+00,0.000000000000000e+00,0.000000000000000e+00,9.999999999998001e+01,-5.936241515673075e-14,0.000000000000000e+00,2.315295182069025e-03,0.000000000000000e+00,0.000000000000000e+00,9.659691996424096e-07,1.278000000000000e-09,4.680000000000000e+03,6.000000000000000e-01,1,3.779999911785126e-01,3.779999911785126e-01,0.000000000000000e+00,0.000000000000000e+00
7.936379896401199e-02,4.473499983420091e+02,7.890605884730123e-02,-1.348130727325112e-05,7.950416883091710e-02,-6.336642266404567e-04,4.923887618862725e-03,-1.669114233831210e-06,4.960913474991540e-03,0.000000000000000e+00,0.000000000000000e+00,0.000000000000000e+00,9.999999999998001e+01,-6.587791878449837e-14,0.000000000000000e+00,2.320225979895485e-03,0.000000000000000e+00,0.000000000000000e+00,9.660106003432271e-07,1.278000000000000e-09,4.680000000000000e+03,6.000000000000000e-01,1,3.790000081062317e-01,3.790000081062317e-01,0.000000000000000e+00,0.000000000000000e+00
7.923600060938649e-02,4.471500009168843e+02,7.878208714205298e-02,-1.327156274649395e-05,7.937255089777626e-02,-6.517454652735531e-04,4.917332494738942e-03,-1.643145863851761e-06,4.953885012950573e-03,0.000000000000000e+00,0.000000000000000e+00,0.000000000000000e+00,9.999999999998001e+01,-7.239322823841327e-14,0.000000000000000e+00,2.325156630775206e-03,0.000000000000000e+00,0.000000000000000e+00,9.660519998102287e-07,1.278000000000000e-09,4.680000000000000e+03,6.000000000000000e-01,1,3.799999952316284e-01,3.799999952316284e-01,0.000000000000000e+00,0.000000000000000e+00
7.910819844602415e-02,4.469499975312950e+02,7.865811174211246e-02,-1.306181196878231e-05,7.924092904206484e-02,-6.698272427764903e-04,4.910777175254722e-03,-1.617176719944614e-06,4.946856341442417e-03,0.000000000000000e+00,0.000000000000000e+00,0.000000000000000e+00,9.999999999998001e+01,-7.890873186618091e-14,0.000000000000000e+00,2.330087428601666e-03,0.000000000000000e+00,0.000000000000000e+00,9.660934005110465e-07,1.278000000000000e-09,4.680000000000000e+03,6.000000000000000e-01,1,3.810000121593475e-01,3.810000121593475e-01,0.000000000000000e+00,0.000000000000000e+00
7.898040009139863e-02,4.467500001061701e+02,7.853414003686422e-02,-1.285206744202515e-05,7.910931110892400e-02,-6.879084814095869e-04,4.904222051130940e-03,-1.591208349965164e-06,4.939827879401450e-03,0.000000000000000e+00,0.000000000000000e+00,0.000000000000000e+00,9.999999999998001e+01,-8.542404132009583e-14,0.000000000000000e+00,2.335018079481387e-03,0.000000000000000e+00,0.000000000000000e+00,9.661347999780478e-07,1.278000000000000e-09,4.680000000000000e+03,6.000000000000000e-01,1,3.819999992847443e-01,3.819999992847443e-01,0.000000000000000e+00,0.000000000000000e+00
7.885260173677311e-02,4.465500026810453e+02,7.841016833161599e-02,-1.264232291526798e-05,7.897769317578315e-02,-7.059897200426835e-04,4.897666927007158e-03,-1.565239979985715e-06,4.932799417360483e-03,0.000000000000000e+00,0.000000000000000e+00,0.000000000000000e+00,9.999999999998001e+01,-9.193935077401074e-14,0.000000000000000e+00,2.339948730361108e-03,0.000000000000000e+00,0.000000000000000e+00,9.661761994450494e-07,1.278000000000000e-09,4.680000000000000e+03,6.000000000000000e-01,1,3.829999864101410e-01,3.829999864101410e-01,0.000000000000000e+00,0.000000000000000e+00
7.872479957341080e-02,4.463499992954560e+02,7.828619293167545e-02,-1.243257213755634e-05,7.884607132007174e-02,-7.240714975456207e-04,4.891111607522938e-03,-1.539270836078568e-06,4.925770745852327e-03,0.000000000000000e+00,0.000000000000000e+00,0.000000000000000e+00,9.999999999998001e+01,-9.845485440177839e-14,0.000000000000000e+00,2.344879528187569e-03,0.000000000000000e+00,0.000000000000000e+00,9.662176001458672e-07,1.278000000000000e-09,4.680000000000000e+03,6.000000000000000e-01,1,3.840000033378601e-01,3.840000033378601e-01,0.000000000000000e+00,0.000000000000000e+00
7.859700121878527e-02,4.461500018703311e+02,7.816222122642721e-02,-1.222282761079917e-05,7.871445338693089e-02,-7.421527361787172e-04,4.884556483399156e-03,-1.513302466099118e-06,4.918742283811360e-03,0.000000000000000e+00,0.000000000000000e+00,0.000000000000000e+00,9.999999999998001e+01,-1.049701638556933e-13,0.000000000000000e+00,2.349810179067290e-03,0.000000000000000e+00,0.000000000000000e+00,9.662589996128688e-07,1.278000000000000e-09,4.680000000000000e+03,6.000000000000000e-01,1,3.849999904632568e-01,3.849999904632568e-01,0.000000000000000e+00,0.000000000000000e+00
7.846919905542295e-02,4.459499984847417e+02,7.803824582648668e-02,-1.201307683308753e-05,7.858283153121948e-02,-7.602345136816543e-04,4.878001163914935e-03,-1.487333322191971e-06,4.911713612303205e-03,0.000000000000000e+00,0.000000000000000e+00,0.000000000000000e+00,9.999999999998001e+01,-1.114856674834609e-13,0.000000000000000e+00,2.354740976893750e-03,0.000000000000000e+00,0.000000000000000e+00,9.663004003136863e-07,1.278000000000000e-09,4.680000000000000e+03,6.000000000000000e-01,1,3.860000073909760e-01,3.860000073909760e-01,0.000000000000000e+00,0.000000000000000e+00
7.834140070079743e-02,4.457500010596169e+02,7.791427412123844e-02,-1.180333230633037e-05,7.845121359807863e-02,-7.783157523147510e-04,4.871446039791153e-03,-1.461364952212521e-06,4.904685150262237e-03,0.000000000000000e+00,0.000000000000000e+00,0.000000000000000e+00,9.999999999997999e+01,-1.180009769373759e-13,0.000000000000000e+00,2.359671627773471e-03,0.000000000000000e+00,0.000000000000000e+00,9.663417997806879e-07,1.278000000000000e-09,4.680000000000000e+03,6.000000000000000e-01,1,3.869999945163727e-01,3.869999945163727e-01,0.000000000000000e+00,0.000000000000000e+00
7.821359853743511e-02,4.455499976740276e+02,7.779029872129790e-02,-1.159358152861872e-05,7.831959174236722e-02,-7.963975298176882e-04,4.864890720306933e-03,-1.435395808305374e-06,4.897656478754082e-03,0.000000000000000e+00,0.000000000000000e+00,0.000000000000000e+00,9.999999999998001e+01,-1.245164805651435e-13,0.000000000000000e+00,2.364602425599931e-03,0.000000000000000e+00,0.000000000000000e+00,9.663832004815054e-07,1.278000000000000e-09,4.680000000000000e+03,6.000000000000000e-01,1,3.880000114440918e-01,3.880000114440918e-01,0.000000000000000e+00,0.000000000000000e+00
7.808580018280958e-02,4.453500002489027e+02,7.766632701604967e-02,-1.138383700186156e-05,7.818797380922639e-02,-8.144787684507847e-04,4.858335596183151e-03,-1.409427438325925e-06,4.890628016713115e-03,0.000000000000000e+00,0.000000000000000e+00,0.000000000000000e+00,9.999999999998001e+01,-1.310317900190584e-13,0.000000000000000e+00,2.369533076479652e-03,0.000000000000000e+00,0.000000000000000e+00,9.664245999485070e-07,1.278000000000000e-09,4.680000000000000e+03,6.000000000000000e-01,1,3.889999985694885e-01,3.889999985694885e-01,0.000000000000000e+00,0.000000000000000e+00
7.795800182818406e-02,4.451500028237779e+02,7.754235531080143e-02,-1.117409247510440e-05,7.805635587608555e-02,-8.325600070838811e-04,4.851780472059369e-03,-1.383459068346475e-06,4.883599554672147e-03,0.000000000000000e+00,0.000000000000000e+00,0.000000000000000e+00,9.999999999998002e+01,-1.375470994729733e-13,0.000000000000000e+00,2.374463727359373e-03,0.000000000000000e+00,0.000000000000000e+00,9.664659994155086e-07,1.278000000000000e-09,4.680000000000000e+03,6.000000000000000e-01,1,3.899999856948853e-01,3.899999856948853e-01,0.000000000000000e+00,0.000000000000000e+00
7.783019966482174e-02,4.449499994381886e+02,7.741837991086090e-02,-1.096434169739275e-05,7.792473402037413e-02,-8.506417845868184e-04,4.845225152575149e-03,-1.357489924439328e-06,4.876570883163992e-03,0.000000000000000e+00,0.000000000000000e+00,0.000000000000000e+00,9.999999999998001e+01,-1.440626031007410e-13,0.000000000000000e+00,2.379394525185833e-03,0.000000000000000e+00,0.000000000000000e+00,9.665074001163261e-07,1.278000000000000e-09,4.680000000000000e+03,6.000000000000000e-01,1,3.910000026226044e-01,3.910000026226044e-01,0.000000000000000e+00,0.000000000000000e+00
7.770240131019622e-02,4.447500020130637e+02,7.729440820561266e-02,-1.075459717063559e-05,7.779311608723329e-02,-8.687230232199149e-04,4.838670028451366e-03,-1.331521554459879e-06,4.869542421123025e-03,0.000000000000000e+00,0.000000000000000e+00,0.000000000000000e+00,9.999999999998001e+01,-1.505779125546558e-13,0.000000000000000e+00,2.384325176065554e-03,0.000000000000000e+00,0.000000000000000e+00,9.665487995833279e-07,1.278000000000000e-09,4.680000000000000e+03,6.000000000000000e-01,1,3.919999897480011e-01,3.919999897480011e-01,0.000000000000000e+00,0.000000000000000e+00
7.757459914683389e-02,4.445499986274745e+02,7.717043280567212e-02,-1.054484639292394e-05,7.766149423152188e-02,-8.868048007228522e-04,4.832114708967146e-03,-1.305552410552731e-06,4.862513749614870e-03,0.000000000000000e+00,0.000000000000000e+00,0.000000000000000e+00,9.999999999998001e+01,-1.570934161824235e-13,0.000000000000000e+00,2.389255973892014e-03,0.000000000000000e+00,0.000000000000000e+00,9.665902002841455e-07,1.278000000000000e-09,4.680000000000000e+03,6.000000000000000e-01,1,3.930000066757202e-01,3.930000066757202e-01,0.000000000000000e+00,0.000000000000000e+00
7.744680079220838e-02,4.443500012023496e+02,7.704646110042389e-02,-1.033510186616678e-05,7.752987629838104e-02,-9.048860393559488e-04,4.825559584843365e-03,-1.279584040573282e-06,4.855485287573902e-03,0.000000000000000e+00,0.000000000000000e+00,0.000000000000000e+00,9.999999999998001e+01,-1.636087256363384e-13,0.000000000000000e+00,2.394186624771735e-03,0.000000000000000e+00,0.000000000000000e+00,9.666315997511471e-07,1.278000000000000e-09,4.680000000000000e+03,6.000000000000000e-01,1,3.939999938011169e-01,3.939999938011169e-01,0.000000000000000e+00,0.000000000000000e+00
7.731899862884604e-02,4.441499978167603e+02,7.692248570048336e-02,-1.012535108845513e-05,7.739825444266962e-02,-9.229678168588860e-04,4.819004265359144e-03,-1.253614896666134e-06,4.848456616065746e-03,0.000000000000000e+00,0.000000000000000e+00,0.000000000000000e+00,9.999999999998001e+01,-1.701242292641060e-13,0.000000000000000e+00,2.399117422598195e-03,0.000000000000000e+00,0.000000000000000e+00,9.666730004519646e-07,1.278000000000000e-09,4.680000000000000e+03,6.000000000000000e-01,1,3.950000107288361e-01,3.950000107288361e-01,0.000000000000000e+00,0.000000000000000e+00
7.719120027422052e-02,4.439500003916355e+02,7.679851399523512e-02,-9.915606561697970e-06,7.726663650952878e-02,-9.410490554919825e-04,4.812449141235362e-03,-1.227646526686685e-06,4.841428154024779e-03,0.000000000000000e+00,0.000000000000000e+00,0.000000000000000e+00,9.999999999998001e+01,-1.766395387180210e-13,0.000000000000000e+00,2.404048073477916e-03,0.000000000000000e+00,0.000000000000000e+00,9.667143999189662e-07,1.278000000000000e-09,4.680000000000000e+03,6.000000000000000e-01,1,3.959999978542328e-01,3.959999978542328e-01,0.000000000000000e+00,0.000000000000000e+00
7.706339811085820e-02,4.437499970060461e+02,7.667453859529459e-02,-9.705855783986325e-06,7.713501465381735e-02,-9.591308329949196e-04,4.805893821751141e-03,-1.201677382779538e-06,4.834399482516624e-03,0.000000000000000e+00,0.000000000000000e+00,0.000000000000000e+00,9.999999999998001e+01,-1.831550423457886e-13,0.000000000000000e+00,2.408978871304377e-03,0.000000000000000e+00,0.000000000000000e+00,9.667558006197839e-07,1.278000000000000e-09,4.680000000000000e+03,6.000000000000000e-01,1,3.970000147819519e-01,3.970000147819519e-01,0.000000000000000e+00,0.000000000000000e+00
7.693559975623268e-02,4.435499995809213e+02,7.655056689004634e-02,-9.496111257229161e-06,7.700339672067652e-02,-9.772120716280161e-04,4.799338697627359e-03,-1.175709012800088e-06,4.827371020475656e-03,0.000000000000000e+00,0.000000000000000e+00,0.000000000000000e+00,9.999999999998001e+01,-1.896703517997035e-13,0.000000000000000e+00,2.413909522184097e-03,0.000000000000000e+00,0.000000000000000e+00,9.667972000867855e-07,1.278000000000000e-09,4.680000000000000e+03,6.000000000000000e-01,1,3.980000019073486e-01,3.980000019073486e-01,0.000000000000000e+00,0.000000000000000e+00
7.680780140160716e-02,4.433500021557963e+02,7.642659518479811e-02,-9.286366730471998e-06,7.687177878753568e-02,-9.952933102611128e-04,4.792783573503576e-03,-1.149740642820639e-06,4.820342558434689e-03,0.000000000000000e+00,0.000000000000000e+00,0.000000000000000e+00,9.999999999998001e+01,-1.961856612536184e-13,0.000000000000000e+00,2.418840173063818e-03,0.000000000000000e+00,0.000000000000000e+00,9.668385995537869e-07,1.278000000000000e-09,4.680000000000000e+03,6.000000000000000e-01,1,3.989999890327454e-01,3.989999890327454e-01,0.000000000000000e+00,0.000000000000000e+00
7.667999923824483e-02,4.431499987702070e+02,7.630261978206344e-02,-9.076616519850026e-06,7.674015694521250e-02,-1.013375087275315e-03,4.786228253816132e-03,-1.123771569124594e-06,4.813313887725074e-03,0.000000000000000e+00,0.000000000000000e+00,0.000000000000000e+00,9.999999999998001e+01,-2.027011087773062e-13,0.000000000000000e+00,2.423770969312443e-03,0.000000000000000e+00,0.000000000000000e+00,9.668800002546046e-07,1.278000000000000e-09,4.679999999999999e+03,6.000000000000000e-01,1,4.000000059604645e-01,4.000000059604645e-01,0.000000000000000e+00,0.000000000000000e+00
7.655220088361908e-02,4.429500013450972e+02,7.617817938508650e-02,-8.961996668059435e-06,7.661078478053643e-02,-1.031374344604979e-03,4.779639040409392e-03,-1.109580539855275e-06,4.806419374413149e-03,0.000000000000000e+00,0.000000000000000e+00,0.000000000000000e+00,9.999999999998001e+01,-1.998054156866769e-13,0.000000000000000e+00,2.428436951114342e-03,0.000000000000000e+00,0.000000000000000e+00,9.669213997216012e-07,1.278000000000000e-09,4.680000000000000e+03,6.000000000000000e-01,1,4.009999930858612e-01,4.009999930858612e-01,0.000000000000000e+00,0.000000000000000e+00
7.642439872025650e-02,4.427499979595229e+02,7.605373527944899e-02,-8.847373400287085e-06,7.648140876021975e-02,-1.049374138361219e-03,4.773049630626261e-03,-1.095389087654882e-06,4.799524655626070e-03,0.000000000000000e+00,0.000000000000000e+00,0.000000000000000e+00,9.999999999998001e+01,-1.969096362965576e-13,0.000000000000000e+00,2.433103071975125e-03,0.000000000000000e+00,0.000000000000000e+00,9.669628004224140e-07,1.278000000000000e-09,4.680000000000001e+03,6.000000000000000e-01,1,4.020000100135803e-01,4.020000100135803e-01,0.000000000000000e+00,0.000000000000000e+00
7.629660036563073e-02,4.425500005344131e+02,7.592929488247205e-02,-8.732753548496490e-06,7.635203659554364e-02,-1.067373395690883e-03,4.766460417219519e-03,-1.081198058385563e-06,4.792630142314143e-03,0.000000000000000e+00,0.000000000000000e+00,0.000000000000000e+00,9.999999999998002e+01,-1.940139432059283e-13,0.000000000000000e+00,2.437769053777023e-03,0.000000000000000e+00,0.000000000000000e+00,9.670041998894103e-07,1.278000000000000e-09,4.680000000000000e+03,6.000000000000000e-01,1,4.029999971389771e-01,4.029999971389771e-01,0.000000000000000e+00,0.000000000000000e+00
7.616879820226814e-02,4.423499971488388e+02,7.580485077683452e-02,-8.618130280724144e-06,7.622266057522696e-02,-1.085373189447124e-03,4.759871007436388e-03,-1.067006606185170e-06,4.785735423527064e-03,0.000000000000000e+00,0.000000000000000e+00,0.000000000000000e+00,9.999999999998001e+01,-1.911181638158090e-13,0.000000000000000e+00,2.442435174637806e-03,0.000000000000000e+00,0.000000000000000e+00,9.670456005902232e-07,1.278000000000000e-09,4.680000000000000e+03,6.000000000000001e-01,1,4.040000140666962e-01,4.040000140666962e-01,0.000000000000000e+00,0.000000000000000e+00
7.604099984764237e-02,4.421499997237289e+02,7.568041037985758e-02,-8.503510428933549e-06,7.609328841055088e-02,-1.103372446776788e-03,4.753281794029647e-03,-1.052815576915851e-06,4.778840910215138e-03,0.000000000000000e+00,0.000000000000000e+00,0.000000000000000e+00,9.999999999998001e+01,-1.882224707251797e-13,0.000000000000000e+00,2.447101156439705e-03,0.000000000000000e+00,0.000000000000000e+00,9.670870000572195e-07,1.278000000000000e-09,4.680000000000000e+03,6.000000000000000e-01,1,4.050000011920929e-01,4.050000011920929e-01,0.000000000000000e+00,0.000000000000000e+00
7.591320149301661e-02,4.419500022986190e+02,7.555596998288065e-02,-8.388890577142956e-06,7.596391624587480e-02,-1.121371704106452e-03,4.746692580622906e-03,-1.038624547646532e-06,4.771946396903213e-03,0.000000000000000e+00,0.000000000000000e+00,0.000000000000000e+00,9.999999999998002e+01,-1.853267776345504e-13,0.000000000000000e+00,2.451767138241604e-03,0.000000000000000e+00,0.000000000000000e+00,9.671283995242162e-07,1.278000000000000e-09,4.680000000000000e+03,6.000000000000000e-01,1,4.059999883174896e-01,4.059999883174896e-01,0.000000000000000e+00,0.000000000000000e+00
7.578539932965404e-02,4.417499989130447e+02,7.543152587724312e-02,-8.274267309370608e-06,7.583454022555812e-02,-1.139371497862692e-03,4.740103170839775e-03,-1.024433095446139e-06,4.765051678116134e-03,0.000000000000000e+00,0.000000000000000e+00,0.000000000000000e+00,9.999999999998001e+01,-1.824309982444311e-13,0.000000000000000e+00,2.456433259102386e-03,0.000000000000000e+00,0.000000000000000e+00,9.671698002250287e-07,1.278000000000000e-09,4.680000000000000e+03,6.000000000000000e-01,1,4.070000052452087e-01,4.070000052452087e-01,0.000000000000000e+00,0.000000000000000e+00
7.565760097502826e-02,4.415500014879349e+02,7.530708548026618e-02,-8.159647457580015e-06,7.570516806088202e-02,-1.157370755192356e-03,4.733513957433035e-03,-1.010242066176820e-06,4.758157164804207e-03,0.000000000000000e+00,0.000000000000000e+00,0.000000000000000e+00,9.999999999998001e+01,-1.795353051538018e-13,0.000000000000000e+00,2.461099240904285e-03,0.000000000000000e+00,0.000000000000000e+00,9.672111996920254e-07,1.278000000000000e-09,4.680000000000000e+03,6.000000000000000e-01,1,4.079999923706055e-01,4.079999923706055e-01,0.000000000000000e+00,0.000000000000000e+00
7.552979881166569e-02,4.413499981023606e+02,7.518264137462866e-02,-8.045024189807667e-06,7.557579204056533e-02,-1.175370548948596e-03,4.726924547649903e-03,-9.960506139764265e-07,4.751262446017127e-03,0.000000000000000e+00,0.000000000000000e+00,0.000000000000000e+00,9.999999999998001e+01,-1.766395257636824e-13,0.000000000000000e+00,2.465765361765068e-03,0.000000000000000e+00,0.000000000000000e+00,9.672526003928378e-07,1.278000000000000e-09,4.680000000000000e+03,6.000000000000000e-01,1,4.090000092983246e-01,4.090000092983246e-01,0.000000000000000e+00,0.000000000000000e+00
7.540200045703992e-02,4.411500006772507e+02,7.505820097765172e-02,-7.930404338017072e-06,7.544641987588926e-02,-1.193369806278261e-03,4.720335334243163e-03,-9.818595847071078e-07,4.744367932705201e-03,0.000000000000000e+00,0.000000000000000e+00,0.000000000000000e+00,9.999999999998001e+01,-1.737438326730532e-13,0.000000000000000e+00,2.470431343566967e-03,0.000000000000000e+00,0.000000000000000e+00,9.672939998598346e-07,1.278000000000000e-09,4.680000000000000e+03,6.000000000000000e-01,1,4.099999964237213e-01,4.099999964237213e-01,0.000000000000000e+00,0.000000000000000e+00
7.527419829367735e-02,4.409499972916764e+02,7.493375687201420e-02,-7.815781070244724e-06,7.531704385557257e-02,-1.211369600034501e-03,4.713745924460031e-03,-9.676681325067145e-07,4.737473213918122e-03,0.000000000000000e+00,0.000000000000000e+00,0.000000000000000e+00,9.999999999998001e+01,-1.708480532829338e-13,0.000000000000000e+00,2.475097464427750e-03,0.000000000000000e+00,0.000000000000000e+00,9.673354005606472e-07,1.278000000000000e-09,4.680000000000000e+03,6.000000000000000e-01,1,4.110000133514404e-01,4.110000133514404e-01,0.000000000000000e+00,0.000000000000000e+00
7.514639993905156e-02,4.407499998665666e+02,7.480931647503725e-02,-7.701161218454131e-06,7.518767169089649e-02,-1.229368857364165e-03,4.707156711053291e-03,-9.534771032373957e-07,4.730578700606195e-03,0.000000000000000e+00,0.000000000000000e+00,0.000000000000000e+00,9.999999999998001e+01,-1.679523601923045e-13,0.000000000000000e+00,2.479763446229648e-03,0.000000000000000e+00,0.000000000000000e+00,9.673768000276437e-07,1.278000000000000e-09,4.680000000000000e+03,6.000000000000000e-01,1,4.120000004768372e-01,4.120000004768372e-01,0.000000000000000e+00,0.000000000000000e+00
7.501860158442580e-02,4.405500024414567e+02,7.468487607806032e-02,-7.586541366663537e-06,7.505829952622041e-02,-1.247368114693829e-03,4.700567497646550e-03,-9.392860739680769e-07,4.723684187294271e-03,0.000000000000000e+00,0.000000000000000e+00,0.000000000000000e+00,9.999999999998002e+01,-1.650566671016753e-13,0.000000000000000e+00,2.484429428031547e-03,0.000000000000000e+00,0.000000000000000e+00,9.674181994946404e-07,1.278000000000000e-09,4.680000000000000e+03,6.000000000000000e-01,1,4.129999876022339e-01,4.129999876022339e-01,0.000000000000000e+00,0.000000000000000e+00
7.489079942106322e-02,4.403499990558823e+02,7.456043197242279e-02,-7.471918098891189e-06,7.492892350590372e-02,-1.265367908450069e-03,4.693978087863418e-03,-9.250946217676836e-07,4.716789468507190e-03,0.000000000000000e+00,0.000000000000000e+00,0.000000000000000e+00,9.999999999997999e+01,-1.621608877115559e-13,0.000000000000000e+00,2.489095548892330e-03,0.000000000000000e+00,0.000000000000000e+00,9.674596001954529e-07,1.278000000000000e-09,4.680000000000000e+03,5.999999999999999e-01,1,4.140000045299530e-01,4.140000045299530e-01,0.000000000000000e+00,0.000000000000000e+00
7.476300106643746e-02,4.401500016307725e+02,7.443599157544585e-02,-7.357298247100596e-06,7.479955134122764e-02,-1.283367165779733e-03,4.687388874456678e-03,-9.109035924983648e-07,4.709894955195265e-03,0.000000000000000e+00,0.000000000000000e+00,0.000000000000000e+00,9.999999999998001e+01,-1.592651946209266e-13,0.000000000000000e+00,2.493761530694229e-03,0.000000000000000e+00,0.000000000000000e+00,9.675009996624496e-07,1.278000000000000e-09,4.680000000000000e+03,6.000000000000000e-01,1,4.149999916553497e-01,4.149999916553497e-01,0.000000000000000e+00,0.000000000000000e+00
7.463519890307488e-02,4.399499982451982e+02,7.431154746980834e-02,-7.242674979328247e-06,7.467017532091096e-02,-1.301366959535974e-03,4.680799464673546e-03,-8.967121402979715e-07,4.703000236408185e-03,0.000000000000000e+00,0.000000000000000e+00,0.000000000000000e+00,9.999999999997999e+01,-1.563694152308073e-13,0.000000000000000e+00,2.498427651555011e-03,0.000000000000000e+00,0.000000000000000e+00,9.675424003632621e-07,1.278000000000000e-09,4.680000000000000e+03,5.999999999999999e-01,1,4.160000085830688e-01,4.160000085830688e-01,0.000000000000000e+00,0.000000000000000e+00
7.450740054844912e-02,4.397500008200884e+02,7.418710707283140e-02,-7.128055127537655e-06,7.454080315623487e-02,-1.319366216865638e-03,4.674210251266806e-03,-8.825211110286528e-07,4.696105723096260e-03,0.000000000000000e+00,0.000000000000000e+00,0.000000000000000e+00,9.999999999998002e+01,-1.534737221401780e-13,0.000000000000000e+00,2.503093633356910e-03,0.000000000000000e+00,0.000000000000000e+00,9.675837998302588e-07,1.278000000000000e-09,4.680000000000000e+03,6.000000000000001e-01,1,4.169999957084656e-01,4.169999957084656e-01,0.000000000000000e+00,0.000000000000000e+00
7.437959838508654e-02,4.395499974345140e+02,7.406266296719388e-02,-7.013431859765305e-06,7.441142713591818e-02,-1.337366010621878e-03,4.667620841483673e-03,-8.683296588282595e-07,4.689211004309180e-03,0.000000000000000e+00,0.000000000000000e+00,0.000000000000000e+00,9.999999999997999e+01,-1.505779427500586e-13,0.000000000000000e+00,2.507759754217693e-03,0.000000000000000e+00,0.000000000000000e+00,9.676252005310712e-07,1.278000000000000e-09,4.680000000000000e+03,5.999999999999999e-01,1,4.180000126361847e-01,4.180000126361847e-01,0.000000000000000e+00,0.000000000000000e+00
7.425180003046078e-02,4.393500000094042e+02,7.393822257021693e-02,-6.898812007974712e-06,7.428205497124210e-02,-1.355365267951542e-03,4.661031628076934e-03,-8.541386295589406e-07,4.682316490997254e-03,0.000000000000000e+00,0.000000000000000e+00,0.000000000000000e+00,9.999999999998001e+01,-1.476822496594294e-13,0.000000000000000e+00,2.512425736019592e-03,0.000000000000000e+00,0.000000000000000e+00,9.676665999980680e-07,1.278000000000000e-09,4.680000000000000e+03,6.000000000000000e-01,1,4.189999997615814e-01,4.189999997615814e-01,0.000000000000000e+00,0.000000000000000e+00
7.412400167583499e-02,4.391500025842944e+02,7.381378217323999e-02,-6.784192156184119e-06,7.415268280656602e-02,-1.373364525281206e-03,4.654442414670192e-03,-8.399476002896218e-07,4.675421977685328e-03,0.000000000000000e+00,0.000000000000000e+00,0.000000000000000e+00,9.999999999998001e+01,-1.447865565688001e-13,0.000000000000000e+00,2.517091717821491e-03,0.000000000000000e+00,0.000000000000000e+00,9.677079994650643e-07,1.278000000000000e-09,4.680000000000000e+03,6.000000000000000e-01,1,4.199999868869781e-01,4.199999868869781e-01,0.000000000000000e+00,0.000000000000000e+00
7.399619951247242e-02,4.389499991987200e+02,7.368933806760247e-02,-6.669568888411771e-06,7.402330678624933e-02,-1.391364319037446e-03,4.647853004887062e-03,-8.257561480892285e-07,4.668527258898249e-03,0.000000000000000e+00,0.000000000000000e+00,0.000000000000000e+00,9.999999999998001e+01,-1.418907771786808e-13,0.000000000000000e+00,2.521757838682273e-03,0.000000000000000e+00,0.000000000000000e+00,9.677494001658771e-07,1.278000000000000e-09,4.680000000000000e+03,6.000000000000000e-01,1,4.210000038146973e-01,4.210000038146973e-01,0.000000000000000e+00,0.000000000000000e+00
7.386840115784665e-02,4.387500017736102e+02,7.356489767062553e-02,-6.554949036621177e-06,7.389393462157326e-02,-1.409363576367111e-03,4.641263791480321e-03,-8.115651188199098e-07,4.661632745586322e-03,0.000000000000000e+00,0.000000000000000e+00,0.000000000000000e+00,9.999999999998001e+01,-1.389950840880515e-13,0.000000000000000e+00,2.526423820484172e-03,0.000000000000000e+00,0.000000000000000e+00,9.677907996328736e-07,1.278000000000000e-09,4.680000000000000e+03,6.000000000000000e-01,1,4.219999909400940e-01,4.219999909400940e-01,0.000000000000000e+00,0.000000000000000e+00
7.374059899448408e-02,4.385499983880359e+02,7.344045356498802e-02,-6.440325768848828e-06,7.376455860125655e-02,-1.427363370123351e-03,4.634674381697190e-03,-7.973736666195166e-07,4.654738026799244e-03,0.000000000000000e+00,0.000000000000000e+00,0.000000000000000e+00,9.999999999998001e+01,-1.360993046979321e-13,0.000000000000000e+00,2.531089941344955e-03,0.000000000000000e+00,0.000000000000000e+00,9.678322003336863e-07,1.278000000000000e-09,4.680000000000000e+03,6.000000000000000e-01,1,4.230000078678131e-01,4.230000078678131e-01,0.000000000000000e+00,0.000000000000000e+00
7.361280063985831e-02,4.383500009629260e+02,7.331601316801106e-02,-6.325705917058235e-06,7.363518643658049e-02,-1.445362627453015e-03,4.628085168290449e-03,-7.831826373501977e-07,4.647843513487317e-03,0.000000000000000e+00,0.000000000000000e+00,0.000000000000000e+00,9.999999999998001e+01,-1.332036116073028e-13,0.000000000000000e+00,2.535755923146853e-03,0.000000000000000e+00,0.000000000000000e+00,9.678735998006828e-07,1.278000000000000e-09,4.680000000000000e+03,6.000000000000000e-01,1,4.239999949932098e-01,4.239999949932098e-01,0.000000000000000e+00,0.000000000000000e+00
7.348499847649574e-02,4.381499975773517e+02,7.319156906237355e-02,-6.211082649285887e-06,7.350581041626381e-02,-1.463362421209255e-03,4.621495758507317e-03,-7.689911851498044e-07,4.640948794700238e-03,0.000000000000000e+00,0.000000000000000e+00,0.000000000000000e+00,9.999999999998001e+01,-1.303078322171835e-13,0.000000000000000e+00,2.540422044007637e-03,0.000000000000000e+00,0.000000000000000e+00,9.679150005014955e-07,1.278000000000000e-09,4.680000000000000e+03,6.000000000000000e-01,1,4.250000119209290e-01,4.250000119209290e-01,0.000000000000000e+00,0.000000000000000e+00
7.335720012186997e-02,4.379500001522418e+02,7.306712866539661e-02,-6.096462797495294e-06,7.337643825158771e-02,-1.481361678538919e-03,4.614906545100576e-03,-7.548001558804857e-07,4.634054281388312e-03,0.000000000000000e+00,0.000000000000000e+00,0.000000000000000e+00,9.999999999998001e+01,-1.274121391265542e-13,0.000000000000000e+00,2.545088025809535e-03,0.000000000000000e+00,0.000000000000000e+00,9.679563999684920e-07,1.278000000000000e-09,4.680000000000000e+03,6.000000000000000e-01,1,4.259999990463257e-01,4.259999990463257e-01,0.000000000000000e+00,0.000000000000000e+00
7.322940176724420e-02,4.377500027271320e+02,7.294268826841965e-02,-5.981842945704700e-06,7.324706608691163e-02,-1.499360935868584e-03,4.608317331693836e-03,-7.406091266111667e-07,4.627159768076386e-03,0.000000000000000e+00,0.000000000000000e+00,0.000000000000000e+00,9.999999999998002e+01,-1.245164460359250e-13,0.000000000000000e+00,2.549754007611434e-03,0.000000000000000e+00,0.000000000000000e+00,9.679977994354885e-07,1.278000000000000e-09,4.680000000000000e+03,6.000000000000000e-01,1,4.269999861717224e-01,4.269999861717224e-01,0.000000000000000e+00,0.000000000000000e+00
7.310159960388163e-02,4.375499993415577e+02,7.281824416278214e-02,-5.867219677932352e-06,7.311769006659495e-02,-1.517360729624823e-03,4.601727921910705e-03,-7.264176744107736e-07,4.620265049289307e-03,0.000000000000000e+00,0.000000000000000e+00,0.000000000000000e+00,9.999999999998002e+01,-1.216206666458056e-13,0.000000000000000e+00,2.554420128472216e-03,0.000000000000000e+00,0.000000000000000e+00,9.680392001363011e-07,1.278000000000000e-09,4.680000000000000e+03,6.000000000000000e-01,1,4.280000030994415e-01,4.280000030994415e-01,0.000000000000000e+00,0.000000000000000e+00
7.297380124925586e-02,4.373500019164479e+02,7.269380376580520e-02,-5.752599826141758e-06,7.298831790191886e-02,-1.535359986954488e-03,4.595138708503964e-03,-7.122266451414546e-07,4.613370535977381e-03,0.000000000000000e+00,0.000000000000000e+00,0.000000000000000e+00,9.999999999998001e+01,-1.187249735551763e-13,0.000000000000000e+00,2.559086110274115e-03,0.000000000000000e+00,0.000000000000000e+00,9.680805996032977e-07,1.278000000000000e-09,4.680000000000000e+03,6.000000000000000e-01,1,4.289999902248383e-01,4.289999902248383e-01,0.000000000000000e+00,0.000000000000000e+00
7.284599908589329e-02,4.371499985308735e+02,7.256935966016768e-02,-5.637976558369410e-06,7.285894188160218e-02,-1.553359780710728e-03,4.588549298720832e-03,-6.980351929410615e-07,4.606475817190301e-03,0.000000000000000e+00,0.000000000000000e+00,0.000000000000000e+00,9.999999999998001e+01,-1.158291941650569e-13,0.000000000000000e+00,2.563752231134898e-03,0.000000000000000e+00,0.000000000000000e+00,9.681220003041105e-07,1.278000000000000e-09,4.680000000000000e+03,6.000000000000000e-01,1,4.300000071525574e-01,4.300000071525574e-01,0.000000000000000e+00,0.000000000000000e+00
7.271820073126752e-02,4.369500011057637e+02,7.244491926319074e-02,-5.523356706578816e-06,7.272956971692610e-02,-1.571359038040392e-03,4.581960085314091e-03,-6.838441636717426e-07,4.599581303878376e-03,0.000000000000000e+00,0.000000000000000e+00,0.000000000000000e+00,9.999999999998002e+01,-1.129335010744277e-13,0.000000000000000e+00,2.568418212936797e-03,0.000000000000000e+00,0.000000000000000e+00,9.681633997711070e-07,1.278000000000000e-09,4.680000000000000e+03,6.000000000000000e-01,1,4.309999942779541e-01,4.309999942779541e-01,0.000000000000000e+00,0.000000000000000e+00
7.259039856790493e-02,4.367499977201894e+02,7.232047515755322e-02,-5.408733438806468e-06,7.260019369660940e-02,-1.589358831796632e-03,4.575370675530961e-03,-6.696527114713494e-07,4.592686585091296e-03,0.000000000000000e+00,0.000000000000000e+00,0.000000000000000e+00,9.999999999998001e+01,-1.100377216843083e-13,0.000000000000000e+00,2.573084333797580e-03,0.000000000000000e+00,0.000000000000000e+00,9.682048004719197e-07,1.278000000000000e-09,4.680000000000000e+03,6.000000000000000e-01,1,4.320000112056732e-01,4.320000112056732e-01,0.000000000000000e+00,0.000000000000000e+00
7.246260021327916e-02,4.365500002950795e+02,7.219603476057629e-02,-5.294113587015875e-06,7.247082153193332e-02,-1.607358089126297e-03,4.568781462124220e-03,-6.554616822020306e-07,4.585792071779371e-03,0.000000000000000e+00,0.000000000000000e+00,0.000000000000000e+00,9.999999999998001e+01,-1.071420285936790e-13,0.000000000000000e+00,2.577750315599479e-03,0.000000000000000e+00,0.000000000000000e+00,9.682461999389162e-07,1.278000000000000e-09,4.680000000000000e+03,6.000000000000000e-01,1,4.329999983310699e-01,4.329999983310699e-01,0.000000000000000e+00,0.000000000000000e+00
7.233480185865339e-02,4.363500028699697e+02,7.207159436359933e-02,-5.179493735225280e-06,7.234144936725724e-02,-1.625357346455961e-03,4.562192248717479e-03,-6.412706529327117e-07,4.578897558467444e-03,0.000000000000000e+00,0.000000000000000e+00,0.000000000000000e+00,9.999999999998001e+01,-1.042463355030498e-13,0.000000000000000e+00,2.582416297401377e-03,0.000000000000000e+00,0.000000000000000e+00,9.682875994059127e-07,1.278000000000000e-09,4.680000000000000e+03,6.000000000000000e-01,1,4.339999854564667e-01,4.339999854564667e-01,0.000000000000000e+00,0.000000000000000e+00
7.220699969529082e-02,4.361499994843954e+02,7.194715025796182e-02,-5.064870467452932e-06,7.221207334694055e-02,-1.643357140212201e-03,4.555602838934348e-03,-6.270792007323185e-07,4.572002839680365e-03,0.000000000000000e+00,0.000000000000000e+00,0.000000000000000e+00,9.999999999998001e+01,-1.013505561129304e-13,0.000000000000000e+00,2.587082418262160e-03,0.000000000000000e+00,0.000000000000000e+00,9.683290001067254e-07,1.278000000000000e-09,4.680000000000000e+03,6.000000000000000e-01,1,4.350000023841858e-01,4.350000023841858e-01,0.000000000000000e+00,0.000000000000000e+00
7.207920134066505e-02,4.359500020592855e+02,7.182270986098488e-02,-4.950250615662339e-06,7.208270118226447e-02,-1.661356397541865e-03,4.549013625527606e-03,-6.128881714629997e-07,4.565108326368438e-03,0.000000000000000e+00,0.000000000000000e+00,0.000000000000000e+00,9.999999999998001e+01,-9.845486302230115e-14,0.000000000000000e+00,2.591748400064059e-03,0.000000000000000e+00,0.000000000000000e+00,9.683703995737219e-07,1.278000000000000e-09,4.680000000000000e+03,6.000000000000000e-01,1,4.359999895095825e-01,4.359999895095825e-01,0.000000000000000e+00,0.000000000000000e+00
7.195139917730248e-02,4.357499986737112e+02,7.169826575534735e-02,-4.835627347889991e-06,7.195332516194779e-02,-1.679356191298105e-03,4.542424215744475e-03,-5.986967192626065e-07,4.558213607581360e-03,0.000000000000000e+00,0.000000000000000e+00,0.000000000000000e+00,9.999999999998001e+01,-9.555908363218179e-14,0.000000000000000e+00,2.596414520924841e-03,0.000000000000000e+00,0.000000000000000e+00,9.684118002745345e-07,1.278000000000000e-09,4.680000000000000e+03,6.000000000000000e-01,1,4.370000064373016e-01,4.370000064373016e-01,0.000000000000000e+00,0.000000000000000e+00
7.182360082267671e-02,4.355500012486013e+02,7.157382535837041e-02,-4.721007496099397e-06,7.182395299727171e-02,-1.697355448627769e-03,4.535835002337734e-03,-5.845056899932877e-07,4.551319094269433e-03,0.000000000000000e+00,0.000000000000000e+00,0.000000000000000e+00,9.999999999998001e+01,-9.266339054155252e-14,0.000000000000000e+00,2.601080502726740e-03,0.000000000000000e+00,0.000000000000000e+00,9.684531997415311e-07,1.278000000000000e-09,4.680000000000000e+03,6.000000000000000e-01,1,4.379999935626984e-01,4.379999935626984e-01,0.000000000000000e+00,0.000000000000000e+00
7.169579865931412e-02,4.353499978630270e+02,7.144938125273290e-02,-4.606384228327049e-06,7.169457697695501e-02,-1.715355242384009e-03,4.529245592554604e-03,-5.703142377928944e-07,4.544424375482354e-03,0.000000000000000e+00,0.000000000000000e+00,0.000000000000000e+00,9.999999999998001e+01,-8.976761115143316e-14,0.000000000000000e+00,2.605746623587523e-03,0.000000000000000e+00,0.000000000000000e+00,9.684946004423437e-07,1.278000000000000e-09,4.680000000000000e+03,6.000000000000000e-01,1,4.390000104904175e-01,4.390000104904175e-01,0.000000000000000e+00,0.000000000000000e+00
7.156800030468836e-02,4.351500004379171e+02,7.132494085575594e-02,-4.491764376536456e-06,7.156520481227893e-02,-1.733354499713674e-03,4.522656379147863e-03,-5.561232085235755e-07,4.537529862170428e-03,0.000000000000000e+00,0.000000000000000e+00,0.000000000000000e+00,9.999999999998001e+01,-8.687191806080388e-14,0.000000000000000e+00,2.610412605389422e-03,0.000000000000000e+00,0.000000000000000e+00,9.685359999093404e-07,1.278000000000000e-09,4.680000000000000e+03,6.000000000000000e-01,1,4.399999976158142e-01,4.399999976158142e-01,0.000000000000000e+00,0.000000000000000e+00
7.144019814132573e-02,4.349499970523573e+02,7.119737884405647e-02,-4.463049654540726e-06,7.143457089809908e-02,-1.751641649808867e-03,4.515891744858075e-03,-5.525680524669600e-07,4.530575062489014e-03,0.000000000000000e+00,0.000000000000000e+00,0.000000000000000e+00,9.999999999998002e+01,-8.700765049546833e-14,0.000000000000000e+00,2.614811023575785e-03,0.000000000000000e+00,0.000000000000000e+00,9.685774006101508e-07,1.278000000000000e-09,4.680000000000000e+03,6.000000000000000e-01,1,4.410000145435333e-01,4.410000145435333e-01,0.000000000000000e+00,0.000000000000000e+00
7.131239978669988e-02,4.347499996272620e+02,7.106982062650691e-02,-4.434335993014267e-06,7.130394087404981e-02,-1.769928255598507e-03,4.509127311749130e-03,-5.490130277065398e-07,4.523620469930103e-03,0.000000000000000e+00,0.000000000000000e+00,0.000000000000000e+00,9.999999999998001e+01,-8.714338610909183e-14,0.000000000000000e+00,2.619209310043359e-03,0.000000000000000e+00,0.000000000000000e+00,9.686188000771447e-07,1.278000000000000e-09,4.680000000000000e+03,6.000000000000000e-01,1,4.420000016689301e-01,4.420000016689301e-01,0.000000000000000e+00,0.000000000000000e+00
7.118460143207403e-02,4.345500022021666e+02,7.094226240895737e-02,-4.405622331487808e-06,7.117331085000055e-02,-1.788214861388148e-03,4.502362878640185e-03,-5.454580029461197e-07,4.516665877371190e-03,0.000000000000000e+00,0.000000000000000e+00,0.000000000000000e+00,9.999999999998001e+01,-8.727912172271534e-14,0.000000000000000e+00,2.623607596510934e-03,0.000000000000000e+00,0.000000000000000e+00,9.686601995441389e-07,1.278000000000000e-09,4.679999999999999e+03,6.000000000000000e-01,1,4.429999887943268e-01,4.429999887943268e-01,0.000000000000000e+00,0.000000000000000e+00
7.105679926871140e-02,4.343499988166068e+02,7.081470038982776e-02,-4.376907814216536e-06,7.104267693282308e-02,-1.806502012168126e-03,4.495598243932829e-03,-5.419028722363417e-07,4.509711077546601e-03,0.000000000000000e+00,0.000000000000000e+00,0.000000000000000e+00,9.999999999998001e+01,-8.741486138162745e-14,0.000000000000000e+00,2.628006014059347e-03,0.000000000000000e+00,0.000000000000000e+00,9.687016002449492e-07,1.278000000000000e-09,4.680000000000000e+03,6.000000000000000e-01,1,4.440000057220459e-01,4.440000057220459e-01,0.000000000000000e+00,0.000000000000000e+00
7.092900091408556e-02,4.341500013915115e+02,7.068714217227820e-02,-4.348194152690077e-06,7.091204690877381e-02,-1.824788617957767e-03,4.488833810823883e-03,-5.383478474759215e-07,4.502756484987689e-03,0.000000000000000e+00,0.000000000000000e+00,0.000000000000000e+00,9.999999999998001e+01,-8.755059699525093e-14,0.000000000000000e+00,2.632404300526922e-03,0.000000000000000e+00,0.000000000000000e+00,9.687429997119432e-07,1.278000000000000e-09,4.680000000000000e+03,6.000000000000000e-01,1,4.449999928474426e-01,4.449999928474426e-01,0.000000000000000e+00,0.000000000000000e+00
7.080119875072291e-02,4.339499980059517e+02,7.055958015314859e-02,-4.319479635418803e-06,7.078141299159633e-02,-1.843075768737745e-03,4.482069176116527e-03,-5.347927167661433e-07,4.495801685163099e-03,0.000000000000000e+00,0.000000000000000e+00,0.000000000000000e+00,9.999999999998001e+01,-8.768633665416305e-14,0.000000000000000e+00,2.636802718075335e-03,0.000000000000000e+00,0.000000000000000e+00,9.687844004127535e-07,1.278000000000000e-09,4.680000000000000e+03,6.000000000000000e-01,1,4.460000097751617e-01,4.460000097751617e-01,0.000000000000000e+00,0.000000000000000e+00
7.067340039609707e-02,4.337500005808563e+02,7.043202193559904e-02,-4.290765973892345e-06,7.065078296754707e-02,-1.861362374527386e-03,4.475304743007582e-03,-5.312376920057232e-07,4.488847092604186e-03,0.000000000000000e+00,0.000000000000000e+00,0.000000000000000e+00,9.999999999997999e+01,-8.782207226778654e-14,0.000000000000000e+00,2.641201004542910e-03,0.000000000000000e+00,0.000000000000000e+00,9.688257998797475e-07,1.278000000000000e-09,4.680000000000000e+03,5.999999999999999e-01,1,4.469999969005585e-01,4.469999969005585e-01,0.000000000000000e+00,0.000000000000000e+00
7.054559823273443e-02,4.335499971952965e+02,7.030445991646943e-02,-4.262051456621072e-06,7.052014905036959e-02,-1.879649525307364e-03,4.468540108300225e-03,-5.276825612959452e-07,4.481892292779597e-03,0.000000000000000e+00,0.000000000000000e+00,0.000000000000000e+00,9.999999999998002e+01,-8.795781192669865e-14,0.000000000000000e+00,2.645599422091323e-03,0.000000000000000e+00,0.000000000000000e+00,9.688672005805581e-07,1.278000000000000e-09,4.680000000000000e+03,6.000000000000000e-01,1,4.480000138282776e-01,4.480000138282776e-01,0.000000000000000e+00,0.000000000000000e+00
7.041779987810859e-02,4.333499997702011e+02,7.017690169891988e-02,-4.233337795094613e-06,7.038951902632032e-02,-1.897936131097004e-03,4.461775675191280e-03,-5.241275365355250e-07,4.474937700220685e-03,0.000000000000000e+00,0.000000000000000e+00,0.000000000000000e+00,9.999999999998001e+01,-8.809354754032215e-14,0.000000000000000e+00,2.649997708558898e-03,0.000000000000000e+00,0.000000000000000e+00,9.689086000475520e-07,1.278000000000000e-09,4.680000000000000e+03,6.000000000000000e-01,1,4.490000009536743e-01,4.490000009536743e-01,0.000000000000000e+00,0.000000000000000e+00
7.029000152348275e-02,4.331500023451058e+02,7.004934348137033e-02,-4.204624133568155e-06,7.025888900227106e-02,-1.916222736886645e-03,4.455011242082335e-03,-5.205725117751050e-07,4.467983107661774e-03,0.000000000000000e+00,0.000000000000000e+00,0.000000000000000e+00,9.999999999998001e+01,-8.822928315394567e-14,0.000000000000000e+00,2.654395995026473e-03,0.000000000000000e+00,0.000000000000000e+00,9.689499995145462e-07,1.278000000000000e-09,4.680000000000000e+03,6.000000000000000e-01,1,4.499999880790710e-01,4.499999880790710e-01,0.000000000000000e+00,0.000000000000000e+00
7.016219936012011e-02,4.329499989595460e+02,6.992178146224072e-02,-4.175909616296881e-06,7.012825508509359e-02,-1.934509887666623e-03,4.448246607374979e-03,-5.170173810653268e-07,4.461028307837183e-03,0.000000000000000e+00,0.000000000000000e+00,0.000000000000000e+00,9.999999999998002e+01,-8.836502281285777e-14,0.000000000000000e+00,2.658794412574886e-03,0.000000000000000e+00,0.000000000000000e+00,9.689914002153565e-07,1.278000000000000e-09,4.680000000000000e+03,6.000000000000000e-01,1,4.510000050067902e-01,4.510000050067902e-01,0.000000000000000e+00,0.000000000000000e+00
7.003440100549427e-02,4.327500015344506e+02,6.979422324469117e-02,-4.147195954770423e-06,6.999762506104432e-02,-1.952796493456264e-03,4.441482174266034e-03,-5.134623563049067e-07,4.454073715278272e-03,0.000000000000000e+00,0.000000000000000e+00,0.000000000000000e+00,9.999999999998001e+01,-8.850075842648127e-14,0.000000000000000e+00,2.663192699042461e-03,0.000000000000000e+00,0.000000000000000e+00,9.690327996823507e-07,1.278000000000000e-09,4.680000000000000e+03,6.000000000000000e-01,1,4.519999921321869e-01,4.519999921321869e-01,0.000000000000000e+00,0.000000000000000e+00
6.990659884213163e-02,4.325499981488908e+02,6.966666122556155e-02,-4.118481437499149e-06,6.986699114386682e-02,-1.971083644236242e-03,4.434717539558677e-03,-5.099072255951286e-07,4.447118915453682e-03,0.000000000000000e+00,0.000000000000000e+00,0.000000000000000e+00,9.999999999998001e+01,-8.863649808539337e-14,0.000000000000000e+00,2.667591116590874e-03,0.000000000000000e+00,0.000000000000000e+00,9.690742003831608e-07,1.278000000000000e-09,4.680000000000000e+03,6.000000000000000e-01,1,4.530000090599060e-01,4.530000090599060e-01,0.000000000000000e+00,0.000000000000000e+00
6.977880048750579e-02,4.323500007237955e+02,6.953910300801200e-02,-4.089767775972691e-06,6.973636111981757e-02,-1.989370250025882e-03,4.427953106449732e-03,-5.063522008347084e-07,4.440164322894770e-03,0.000000000000000e+00,0.000000000000000e+00,0.000000000000000e+00,9.999999999997999e+01,-8.877223369901687e-14,0.000000000000000e+00,2.671989403058448e-03,0.000000000000000e+00,0.000000000000000e+00,9.691155998501550e-07,1.278000000000000e-09,4.680000000000000e+03,6.000000000000000e-01,1,4.539999961853027e-01,4.539999961853027e-01,0.000000000000000e+00,0.000000000000000e+00
6.965099832414313e-02,4.321499973382356e+02,6.941154098888239e-02,-4.061053258701417e-06,6.960572720264008e-02,-2.007657400805860e-03,4.421188471742375e-03,-5.027970701249302e-07,4.433209523070180e-03,0.000000000000000e+00,0.000000000000000e+00,0.000000000000000e+00,9.999999999998001e+01,-8.890797335792896e-14,0.000000000000000e+00,2.676387820606862e-03,0.000000000000000e+00,0.000000000000000e+00,9.691570005509653e-07,1.278000000000000e-09,4.680000000000000e+03,5.999999999999999e-01,1,4.550000131130219e-01,4.550000131130219e-01,0.000000000000000e+00,0.000000000000000e+00
6.952319996951731e-02,4.319499999131403e+02,6.928398277133284e-02,-4.032339597174959e-06,6.947509717859082e-02,-2.025944006595501e-03,4.414424038633430e-03,-4.992420453645102e-07,4.426254930511268e-03,0.000000000000000e+00,0.000000000000000e+00,0.000000000000000e+00,9.999999999998001e+01,-8.904370897155249e-14,0.000000000000000e+00,2.680786107074437e-03,0.000000000000000e+00,0.000000000000000e+00,9.691984000179593e-07,1.278000000000000e-09,4.680000000000000e+03,6.000000000000000e-01,1,4.560000002384186e-01,4.560000002384186e-01,0.000000000000000e+00,0.000000000000000e+00
6.939540161489147e-02,4.317500024880450e+02,6.915642455378329e-02,-4.003625935648501e-06,6.934446715454157e-02,-2.044230612385142e-03,4.407659605524486e-03,-4.956870206040901e-07,4.419300337952356e-03,0.000000000000000e+00,0.000000000000000e+00,0.000000000000000e+00,9.999999999998002e+01,-8.917944458517599e-14,0.000000000000000e+00,2.685184393542011e-03,0.000000000000000e+00,0.000000000000000e+00,9.692397994849535e-07,1.278000000000000e-09,4.680000000000000e+03,6.000000000000000e-01,1,4.569999873638153e-01,4.569999873638153e-01,0.000000000000000e+00,0.000000000000000e+00
6.926759945152883e-02,4.315499991024851e+02,6.902886253465368e-02,-3.974911418377227e-06,6.921383323736409e-02,-2.062517763165120e-03,4.400894970817129e-03,-4.921318898943120e-07,4.412345538127766e-03,0.000000000000000e+00,0.000000000000000e+00,0.000000000000000e+00,9.999999999998001e+01,-8.931518424408808e-14,0.000000000000000e+00,2.689582811090425e-03,0.000000000000000e+00,0.000000000000000e+00,9.692812001857638e-07,1.278000000000000e-09,4.680000000000000e+03,6.000000000000000e-01,1,4.580000042915344e-01,4.580000042915344e-01,0.000000000000000e+00,0.000000000000000e+00
6.913980109690299e-02,4.313500016773898e+02,6.890130431710413e-02,-3.946197756850769e-06,6.908320321331482e-02,-2.080804368954761e-03,4.394130537708184e-03,-4.885768651338919e-07,4.405390945568854e-03,0.000000000000000e+00,0.000000000000000e+00,0.000000000000000e+00,9.999999999998002e+01,-8.945091985771160e-14,0.000000000000000e+00,2.693981097558000e-03,0.000000000000000e+00,0.000000000000000e+00,9.693225996527580e-07,1.278000000000000e-09,4.680000000000000e+03,6.000000000000001e-01,1,4.589999914169312e-01,4.589999914169312e-01,0.000000000000000e+00,0.000000000000000e+00
6.901199893354035e-02,4.311499982918299e+02,6.877374229797451e-02,-3.917483239579495e-06,6.895256929613734e-02,-2.099091519734739e-03,4.387365903000828e-03,-4.850217344241137e-07,4.398436145744264e-03,0.000000000000000e+00,0.000000000000000e+00,0.000000000000000e+00,9.999999999998001e+01,-8.958665951662370e-14,0.000000000000000e+00,2.698379515106413e-03,0.000000000000000e+00,0.000000000000000e+00,9.693640003535683e-07,1.278000000000000e-09,4.680000000000000e+03,6.000000000000000e-01,1,4.600000083446503e-01,4.600000083446503e-01,0.000000000000000e+00,0.000000000000000e+00
6.888420057891451e-02,4.309500008667346e+02,6.864618408042496e-02,-3.888769578053036e-06,6.882193927208807e-02,-2.117378125524379e-03,4.380601469891882e-03,-4.814667096636936e-07,4.391481553185353e-03,0.000000000000000e+00,0.000000000000000e+00,0.000000000000000e+00,9.999999999998001e+01,-8.972239513024720e-14,0.000000000000000e+00,2.702777801573987e-03,0.000000000000000e+00,0.000000000000000e+00,9.694053998205623e-07,1.278000000000000e-09,4.680000000000000e+03,6.000000000000000e-01,1,4.609999954700470e-01,4.609999954700470e-01,0.000000000000000e+00,0.000000000000000e+00
6.875639841555187e-02,4.307499974811748e+02,6.851862206129535e-02,-3.860055060781763e-06,6.869130535491061e-02,-2.135665276304358e-03,4.373836835184526e-03,-4.779115789539155e-07,4.384526753360762e-03,0.000000000000000e+00,0.000000000000000e+00,0.000000000000000e+00,9.999999999998001e+01,-8.985813478915930e-14,0.000000000000000e+00,2.707176219122401e-03,0.000000000000000e+00,0.000000000000000e+00,9.694468005213726e-07,1.278000000000000e-09,4.680000000000000e+03,6.000000000000000e-01,1,4.620000123977661e-01,4.620000123977661e-01,0.000000000000000e+00,0.000000000000000e+00
6.862860006092603e-02,4.305500000560794e+02,6.839106384374580e-02,-3.831341399255304e-06,6.856067533086133e-02,-2.153951882093998e-03,4.367072402075581e-03,-4.743565541934954e-07,4.377572160801851e-03,0.000000000000000e+00,0.000000000000000e+00,0.000000000000000e+00,9.999999999998001e+01,-8.999387040278280e-14,0.000000000000000e+00,2.711574505589976e-03,0.000000000000000e+00,0.000000000000000e+00,9.694881999883668e-07,1.278000000000000e-09,4.680000000000000e+03,6.000000000000000e-01,1,4.629999995231628e-01,4.629999995231628e-01,0.000000000000000e+00,0.000000000000000e+00
6.850080170630019e-02,4.303500026309841e+02,6.826350562619625e-02,-3.802627737728846e-06,6.843004530681207e-02,-2.172238487883639e-03,4.360307968966635e-03,-4.708015294330753e-07,4.370617568242939e-03,0.000000000000000e+00,0.000000000000000e+00,0.000000000000000e+00,9.999999999998001e+01,-9.012960601640631e-14,0.000000000000000e+00,2.715972792057550e-03,0.000000000000000e+00,0.000000000000000e+00,9.695295994553608e-07,1.278000000000000e-09,4.680000000000000e+03,6.000000000000000e-01,1,4.639999866485596e-01,4.639999866485596e-01,0.000000000000000e+00,0.000000000000000e+00
6.837299954293755e-02,4.301499992454243e+02,6.813594360706664e-02,-3.773913220457573e-06,6.829941138963459e-02,-2.190525638663616e-03,4.353543334259280e-03,-4.672463987232972e-07,4.363662768418349e-03,0.000000000000000e+00,0.000000000000000e+00,0.000000000000000e+00,9.999999999998001e+01,-9.026534567531840e-14,0.000000000000000e+00,2.720371209605964e-03,0.000000000000000e+00,0.000000000000000e+00,9.695710001561711e-07,1.278000000000000e-09,4.680000000000000e+03,6.000000000000000e-01,1,4.650000035762787e-01,4.650000035762787e-01,0.000000000000000e+00,0.000000000000000e+00
6.824520118831169e-02,4.299500018203289e+02,6.800838538951709e-02,-3.745199558931114e-06,6.816878136558532e-02,-2.208812244453257e-03,4.346778901150334e-03,-4.636913739628770e-07,4.356708175859437e-03,0.000000000000000e+00,0.000000000000000e+00,0.000000000000000e+00,9.999999999998002e+01,-9.040108128894190e-14,0.000000000000000e+00,2.724769496073538e-03,0.000000000000000e+00,0.000000000000000e+00,9.696123996231653e-07,1.278000000000000e-09,4.680000000000000e+03,6.000000000000000e-01,1,4.659999907016754e-01,4.659999907016754e-01,0.000000000000000e+00,0.000000000000000e+00
6.811739902494905e-02,4.297499984347691e+02,6.788082337038748e-02,-3.716485041659841e-06,6.803814744840785e-02,-2.227099395233236e-03,4.340014266442978e-03,-4.601362432530989e-07,4.349753376034847e-03,0.000000000000000e+00,0.000000000000000e+00,0.000000000000000e+00,9.999999999998001e+01,-9.053682094785401e-14,0.000000000000000e+00,2.729167913621952e-03,0.000000000000000e+00,0.000000000000000e+00,9.696538003239756e-07,1.278000000000000e-09,4.680000000000000e+03,6.000000000000000e-01,1,4.670000076293945e-01,4.670000076293945e-01,0.000000000000000e+00,0.000000000000000e+00
6.798960067032321e-02,4.295500010096737e+02,6.775326515283792e-02,-3.687771380133382e-06,6.790751742435858e-02,-2.245386001022876e-03,4.333249833334032e-03,-4.565812184926788e-07,4.342798783475935e-03,0.000000000000000e+00,0.000000000000000e+00,0.000000000000000e+00,9.999999999998001e+01,-9.067255656147752e-14,0.000000000000000e+00,2.733566200089526e-03,0.000000000000000e+00,0.000000000000000e+00,9.696951997909698e-07,1.278000000000000e-09,4.680000000000000e+03,6.000000000000000e-01,1,4.679999947547913e-01,4.679999947547913e-01,0.000000000000000e+00,0.000000000000000e+00
6.786179850696057e-02,4.293499976241139e+02,6.762570313370830e-02,-3.659056862862109e-06,6.777688350718111e-02,-2.263673151802854e-03,4.326485198626676e-03,-4.530260877829007e-07,4.335843983651345e-03,0.000000000000000e+00,0.000000000000000e+00,0.000000000000000e+00,9.999999999997999e+01,-9.080829622038962e-14,0.000000000000000e+00,2.737964617637940e-03,0.000000000000000e+00,0.000000000000000e+00,9.697366004917801e-07,1.278000000000000e-09,4.680000000000000e+03,6.000000000000000e-01,1,4.690000116825104e-01,4.690000116825104e-01,0.000000000000000e+00,0.000000000000000e+00
6.773400015233473e-02,4.291500001990186e+02,6.749814491615876e-02,-3.630343201335650e-06,6.764625348313184e-02,-2.281959757592495e-03,4.319720765517731e-03,-4.494710630224806e-07,4.328889391092433e-03,0.000000000000000e+00,0.000000000000000e+00,0.000000000000000e+00,9.999999999998001e+01,-9.094403183401312e-14,0.000000000000000e+00,2.742362904105514e-03,0.000000000000000e+00,0.000000000000000e+00,9.697779999587741e-07,1.278000000000000e-09,4.680000000000000e+03,6.000000000000000e-01,1,4.699999988079071e-01,4.699999988079071e-01,0.000000000000000e+00,0.000000000000000e+00
6.760620179770889e-02,4.289500027739232e+02,6.737058669860921e-02,-3.601629539809192e-06,6.751562345908257e-02,-2.300246363382135e-03,4.312956332408786e-03,-4.459160382620605e-07,4.321934798533522e-03,0.000000000000000e+00,0.000000000000000e+00,0.000000000000000e+00,9.999999999998001e+01,-9.107976744763662e-14,0.000000000000000e+00,2.746761190573089e-03,0.000000000000000e+00,0.000000000000000e+00,9.698193994257683e-07,1.278000000000000e-09,4.680000000000000e+03,6.000000000000000e-01,1,4.709999859333038e-01,4.709999859333038e-01,0.000000000000000e+00,0.000000000000000e+00
6.747839963434625e-02,4.287499993883634e+02,6.724302467947960e-02,-3.572915022537919e-06,6.738498954190510e-02,-2.318533514162114e-03,4.306191697701429e-03,-4.423609075522823e-07,4.314979998708932e-03,0.000000000000000e+00,0.000000000000000e+00,0.000000000000000e+00,9.999999999998001e+01,-9.121550710654873e-14,0.000000000000000e+00,2.751159608121502e-03,0.000000000000000e+00,0.000000000000000e+00,9.698608001265784e-07,1.278000000000000e-09,4.680000000000000e+03,6.000000000000000e-01,1,4.720000028610229e-01,4.720000028610229e-01,0.000000000000000e+00,0.000000000000000e+00
6.735060127972040e-02,4.285500019632681e+02,6.711546646193003e-02,-3.544201361011460e-06,6.725435951785583e-02,-2.336820119951755e-03,4.299427264592484e-03,-4.388058827918622e-07,4.308025406150020e-03,0.000000000000000e+00,0.000000000000000e+00,0.000000000000000e+00,9.999999999998002e+01,-9.135124272017222e-14,0.000000000000000e+00,2.755557894589077e-03,0.000000000000000e+00,0.000000000000000e+00,9.699021995935726e-07,1.278000000000000e-09,4.680000000000000e+03,6.000000000000000e-01,1,4.729999899864197e-01,4.729999899864197e-01,0.000000000000000e+00,0.000000000000000e+00
6.722279911635776e-02,4.283499985777082e+02,6.698790444280042e-02,-3.515486843740186e-06,6.712372560067835e-02,-2.355107270731733e-03,4.292662629885128e-03,-4.352507520820841e-07,4.301070606325430e-03,0.000000000000000e+00,0.000000000000000e+00,0.000000000000000e+00,9.999999999998001e+01,-9.148698237908433e-14,0.000000000000000e+00,2.759956312137490e-03,0.000000000000000e+00,0.000000000000000e+00,9.699436002943829e-07,1.278000000000000e-09,4.680000000000000e+03,6.000000000000000e-01,1,4.740000069141388e-01,4.740000069141388e-01,0.000000000000000e+00,0.000000000000000e+00
6.709500076173192e-02,4.281500011526128e+02,6.686034622525087e-02,-3.486773182213728e-06,6.699309557662908e-02,-2.373393876521373e-03,4.285898196776183e-03,-4.316957273216640e-07,4.294116013766518e-03,0.000000000000000e+00,0.000000000000000e+00,0.000000000000000e+00,9.999999999998001e+01,-9.162271799270784e-14,0.000000000000000e+00,2.764354598605065e-03,0.000000000000000e+00,0.000000000000000e+00,9.699849997613771e-07,1.278000000000000e-09,4.680000000000000e+03,6.000000000000000e-01,1,4.749999940395355e-01,4.749999940395355e-01,0.000000000000000e+00,0.000000000000000e+00
6.696719859836928e-02,4.279499977670530e+02,6.673278420612126e-02,-3.458058664942455e-06,6.686246165945160e-02,-2.391681027301351e-03,4.279133562068826e-03,-4.281405966118859e-07,4.287161213941929e-03,0.000000000000000e+00,0.000000000000000e+00,0.000000000000000e+00,9.999999999998001e+01,-9.175845765161994e-14,0.000000000000000e+00,2.768753016153478e-03,0.000000000000000e+00,0.000000000000000e+00,9.700264004621874e-07,1.278000000000000e-09,4.680000000000000e+03,6.000000000000000e-01,1,4.760000109672546e-01,4.760000109672546e-01,0.000000000000000e+00,0.000000000000000e+00
6.683940024374344e-02,4.277500003419577e+02,6.660522598857171e-02,-3.429345003415996e-06,6.673183163540235e-02,-2.409967633090992e-03,4.272369128959882e-03,-4.245855718514657e-07,4.280206621383016e-03,0.000000000000000e+00,0.000000000000000e+00,0.000000000000000e+00,9.999999999998001e+01,-9.189419326524344e-14,0.000000000000000e+00,2.773151302621053e-03,0.000000000000000e+00,0.000000000000000e+00,9.700677999291814e-07,1.278000000000000e-09,4.680000000000000e+03,6.000000000000000e-01,1,4.769999980926514e-01,4.769999980926514e-01,0.000000000000000e+00,0.000000000000000e+00
6.671160188911759e-02,4.275500029168624e+02,6.647766777102217e-02,-3.400631341889538e-06,6.660120161135308e-02,-2.428254238880632e-03,4.265604695850936e-03,-4.210305470910456e-07,4.273252028824105e-03,0.000000000000000e+00,0.000000000000000e+00,0.000000000000000e+00,9.999999999998002e+01,-9.202992887886694e-14,0.000000000000000e+00,2.777549589088628e-03,0.000000000000000e+00,0.000000000000000e+00,9.701091993961756e-07,1.278000000000000e-09,4.680000000000000e+03,6.000000000000000e-01,1,4.779999852180481e-01,4.779999852180481e-01,0.000000000000000e+00,0.000000000000000e+00
6.658379972575496e-02,4.273499995313025e+02,6.635010575189254e-02,-3.371916824618264e-06,6.647056769417559e-02,-2.446541389660611e-03,4.258840061143580e-03,-4.174754163812675e-07,4.266297228999515e-03,0.000000000000000e+00,0.000000000000000e+00,0.000000000000000e+00,9.999999999998001e+01,-9.216566853777905e-14,0.000000000000000e+00,2.781948006637041e-03,0.000000000000000e+00,0.000000000000000e+00,9.701506000969859e-07,1.278000000000000e-09,4.680000000000000e+03,6.000000000000000e-01,1,4.790000021457672e-01,4.790000021457672e-01,0.000000000000000e+00,0.000000000000000e+00
6.645600137112911e-02,4.271500021062072e+02,6.622254753434299e-02,-3.343203163091806e-06,6.633993767012633e-02,-2.464827995450251e-03,4.252075628034634e-03,-4.139203916208474e-07,4.259342636440603e-03,0.000000000000000e+00,0.000000000000000e+00,0.000000000000000e+00,9.999999999998001e+01,-9.230140415140256e-14,0.000000000000000e+00,2.786346293104616e-03,0.000000000000000e+00,0.000000000000000e+00,9.701919995639799e-07,1.278000000000000e-09,4.680000000000000e+03,6.000000000000000e-01,1,4.799999892711639e-01,4.799999892711639e-01,0.000000000000000e+00,0.000000000000000e+00
6.632819920776661e-02,4.269499987206634e+02,6.609141292998924e-02,-3.284333008762499e-06,6.620697324358853e-02,-2.483489160678531e-03,4.245112986564967e-03,-4.066317058467433e-07,4.252266720264284e-03,0.000000000000000e+00,0.000000000000000e+00,0.000000000000000e+00,9.999999999998002e+01,-9.433747864929151e-14,0.000000000000000e+00,2.790475075764507e-03,0.000000000000000e+00,0.000000000000000e+00,9.702334002647877e-07,1.278000000000000e-09,4.680000000000000e+03,6.000000000000000e-01,1,4.810000061988831e-01,4.810000061988831e-01,0.000000000000000e+00,0.000000000000000e+00
6.620040085314091e-02,4.267500012955840e+02,6.596028219536140e-02,-3.225464285386772e-06,6.607401275463259e-02,-2.502149773782273e-03,4.238150550470622e-03,-3.993431972383206e-07,4.245191013663897e-03,0.000000000000000e+00,0.000000000000000e+00,0.000000000000000e+00,9.999999999998001e+01,-9.637351285363565e-14,0.000000000000000e+00,2.794603732486755e-03,0.000000000000000e+00,0.000000000000000e+00,9.702747997317791e-07,1.278000000000000e-09,4.680000000000000e+03,5.999999999999999e-01,1,4.819999933242798e-01,4.819999933242798e-01,0.000000000000000e+00,0.000000000000000e+00
6.607259868977841e-02,4.265499979100402e+02,6.582914755268283e-02,-3.166593807563785e-06,6.594104830309430e-02,-2.520810943022782e-03,4.231187906876843e-03,-3.920544714126182e-07,4.238115096188306e-03,0.000000000000000e+00,0.000000000000000e+00,0.000000000000000e+00,9.999999999998001e+01,-9.840960773730876e-14,0.000000000000000e+00,2.798732512254146e-03,0.000000000000000e+00,0.000000000000000e+00,9.703162004325867e-07,1.278000000000000e-09,4.680000000000001e+03,6.000000000000000e-01,1,4.830000102519989e-01,4.830000102519989e-01,0.000000000000000e+00,0.000000000000000e+00
6.594480033515270e-02,4.263500004849608e+02,6.569801681805500e-02,-3.107725084188059e-06,6.580808781413840e-02,-2.539471556126523e-03,4.224225470782499e-03,-3.847659628041956e-07,4.231039389587919e-03,0.000000000000000e+00,0.000000000000000e+00,0.000000000000000e+00,9.999999999998001e+01,-1.004456419416529e-13,0.000000000000000e+00,2.802861168976395e-03,0.000000000000000e+00,0.000000000000000e+00,9.703575998995781e-07,1.278000000000000e-09,4.680000000000000e+03,6.000000000000000e-01,1,4.839999973773956e-01,4.839999973773956e-01,0.000000000000000e+00,0.000000000000000e+00
6.581699817179021e-02,4.261499970994170e+02,6.556688217537643e-02,-3.048854606365072e-06,6.567512336260010e-02,-2.558132725367032e-03,4.217262827188719e-03,-3.774772369784931e-07,4.223963472112328e-03,0.000000000000000e+00,0.000000000000000e+00,0.000000000000000e+00,9.999999999998001e+01,-1.024817368253260e-13,0.000000000000000e+00,2.806989948743786e-03,0.000000000000000e+00,0.000000000000000e+00,9.703990006003857e-07,1.278000000000000e-09,4.680000000000000e+03,6.000000000000000e-01,1,4.850000143051147e-01,4.850000143051147e-01,0.000000000000000e+00,0.000000000000000e+00
6.568919981716451e-02,4.259499996743377e+02,6.543575144074859e-02,-2.989985882989346e-06,6.554216287364419e-02,-2.576793338470774e-03,4.210300391094376e-03,-3.701887283700704e-07,4.216887765511941e-03,0.000000000000000e+00,0.000000000000000e+00,0.000000000000000e+00,9.999999999998001e+01,-1.045177710296701e-13,0.000000000000000e+00,2.811118605466034e-03,0.000000000000000e+00,0.000000000000000e+00,9.704404000673769e-07,1.278000000000000e-09,4.680000000000000e+03,6.000000000000000e-01,1,4.860000014305115e-01,4.860000014305115e-01,0.000000000000000e+00,0.000000000000000e+00
6.556140146253880e-02,4.257500022492583e+02,6.530462070612077e-02,-2.931117159613620e-06,6.540920238468828e-02,-2.595453951574516e-03,4.203337955000033e-03,-3.629002197616478e-07,4.209812058911555e-03,0.000000000000000e+00,0.000000000000000e+00,0.000000000000000e+00,9.999999999998001e+01,-1.065538052340143e-13,0.000000000000000e+00,2.815247262188282e-03,0.000000000000000e+00,0.000000000000000e+00,9.704817995343683e-07,1.278000000000000e-09,4.680000000000000e+03,6.000000000000000e-01,1,4.869999885559082e-01,4.869999885559082e-01,0.000000000000000e+00,0.000000000000000e+00
6.543359929917630e-02,4.255499988637146e+02,6.517348606344220e-02,-2.872246681790634e-06,6.527623793314999e-02,-2.614115120815025e-03,4.196375311406252e-03,-3.556114939359454e-07,4.202736141435964e-03,0.000000000000000e+00,0.000000000000000e+00,0.000000000000000e+00,9.999999999998002e+01,-1.085899001176874e-13,0.000000000000000e+00,2.819376041955673e-03,0.000000000000000e+00,0.000000000000000e+00,9.705232002351761e-07,1.278000000000000e-09,4.680000000000000e+03,6.000000000000000e-01,1,4.880000054836273e-01,4.880000054836273e-01,0.000000000000000e+00,0.000000000000000e+00
6.530580094455059e-02,4.253500014386352e+02,6.504235532881436e-02,-2.813377958414908e-06,6.514327744419407e-02,-2.632775733918766e-03,4.189412875311909e-03,-3.483229853275227e-07,4.195660434835577e-03,0.000000000000000e+00,0.000000000000000e+00,0.000000000000000e+00,9.999999999998001e+01,-1.106259343220315e-13,0.000000000000000e+00,2.823504698677922e-03,0.000000000000000e+00,0.000000000000000e+00,9.705645997021675e-07,1.278000000000000e-09,4.680000000000000e+03,6.000000000000000e-01,1,4.889999926090240e-01,4.889999926090240e-01,0.000000000000000e+00,0.000000000000000e+00
6.517799878118809e-02,4.251499980530913e+02,6.491122068613579e-02,-2.754507480591922e-06,6.501031299265578e-02,-2.651436903159275e-03,4.182450231718129e-03,-3.410342595018203e-07,4.188584517359986e-03,0.000000000000000e+00,0.000000000000000e+00,0.000000000000000e+00,9.999999999998001e+01,-1.126620292057046e-13,0.000000000000000e+00,2.827633478445313e-03,0.000000000000000e+00,0.000000000000000e+00,9.706060004029749e-07,1.278000000000000e-09,4.680000000000000e+03,6.000000000000000e-01,1,4.900000095367432e-01,4.900000095367432e-01,0.000000000000000e+00,0.000000000000000e+00
6.505020042656239e-02,4.249500006280119e+02,6.478008995150795e-02,-2.695638757216195e-06,6.487735250369986e-02,-2.670097516263016e-03,4.175487795623786e-03,-3.337457508933977e-07,4.181508810759599e-03,0.000000000000000e+00,0.000000000000000e+00,0.000000000000000e+00,9.999999999997999e+01,-1.146980634100488e-13,0.000000000000000e+00,2.831762135167561e-03,0.000000000000000e+00,0.000000000000000e+00,9.706473998699663e-07,1.278000000000000e-09,4.680000000000000e+03,6.000000000000000e-01,1,4.909999966621399e-01,4.909999966621399e-01,0.000000000000000e+00,0.000000000000000e+00
6.492239826319988e-02,4.247499972424682e+02,6.464895530882939e-02,-2.636768279393209e-06,6.474438805216158e-02,-2.688758685503525e-03,4.168525152030006e-03,-3.264570250676952e-07,4.174432893284008e-03,0.000000000000000e+00,0.000000000000000e+00,0.000000000000000e+00,9.999999999998001e+01,-1.167341582937219e-13,0.000000000000000e+00,2.835890914934952e-03,0.000000000000000e+00,0.000000000000000e+00,9.706888005707739e-07,1.278000000000000e-09,4.680000000000000e+03,6.000000000000000e-01,1,4.920000135898590e-01,4.920000135898590e-01,0.000000000000000e+00,0.000000000000000e+00
6.479459990857418e-02,4.245499998173889e+02,6.451782457420158e-02,-2.577899556017483e-06,6.461142756320568e-02,-2.707419298607266e-03,4.161562715935662e-03,-3.191685164592726e-07,4.167357186683622e-03,0.000000000000000e+00,0.000000000000000e+00,0.000000000000000e+00,9.999999999998002e+01,-1.187701924980660e-13,0.000000000000000e+00,2.840019571657201e-03,0.000000000000000e+00,0.000000000000000e+00,9.707302000377655e-07,1.278000000000000e-09,4.680000000000000e+03,6.000000000000000e-01,1,4.930000007152557e-01,4.930000007152557e-01,0.000000000000000e+00,0.000000000000000e+00
6.466680155394848e-02,4.243500023923095e+02,6.438669383957374e-02,-2.519030832641757e-06,6.447846707424976e-02,-2.726079911711008e-03,4.154600279841319e-03,-3.118800078508500e-07,4.160281480083234e-03,0.000000000000000e+00,0.000000000000000e+00,0.000000000000000e+00,9.999999999998001e+01,-1.208062267024102e-13,0.000000000000000e+00,2.844148228379449e-03,0.000000000000000e+00,0.000000000000000e+00,9.707715995047568e-07,1.278000000000000e-09,4.680000000000000e+03,6.000000000000000e-01,1,4.939999878406525e-01,4.939999878406525e-01,0.000000000000000e+00,0.000000000000000e+00
6.453899939058597e-02,4.241499990067656e+02,6.425555919689516e-02,-2.460160354818770e-06,6.434550262271146e-02,-2.744741080951517e-03,4.147637636247538e-03,-3.045912820251475e-07,4.153205562607643e-03,0.000000000000000e+00,0.000000000000000e+00,0.000000000000000e+00,9.999999999997999e+01,-1.228423215860833e-13,0.000000000000000e+00,2.848277008146840e-03,0.000000000000000e+00,0.000000000000000e+00,9.708130002055643e-07,1.278000000000000e-09,4.680000000000000e+03,6.000000000000000e-01,1,4.950000047683716e-01,4.950000047683716e-01,0.000000000000000e+00,0.000000000000000e+00
6.441120103596028e-02,4.239500015816863e+02,6.412442846226733e-02,-2.401291631443044e-06,6.421254213375555e-02,-2.763401694055258e-03,4.140675200153195e-03,-2.973027734167249e-07,4.146129856007257e-03,0.000000000000000e+00,0.000000000000000e+00,0.000000000000000e+00,9.999999999998001e+01,-1.248783557904274e-13,0.000000000000000e+00,2.852405664869088e-03,0.000000000000000e+00,0.000000000000000e+00,9.708543996725558e-07,1.278000000000000e-09,4.680000000000000e+03,6.000000000000000e-01,1,4.959999918937683e-01,4.959999918937683e-01,0.000000000000000e+00,0.000000000000000e+00
6.428339887259776e-02,4.237499981961425e+02,6.399329381958876e-02,-2.342421153620058e-06,6.407957768221725e-02,-2.782062863295767e-03,4.133712556559415e-03,-2.900140475910224e-07,4.139053938531666e-03,0.000000000000000e+00,0.000000000000000e+00,0.000000000000000e+00,9.999999999998001e+01,-1.269144506741005e-13,0.000000000000000e+00,2.856534444636480e-03,0.000000000000000e+00,0.000000000000000e+00,9.708958003733633e-07,1.278000000000000e-09,4.680000000000000e+03,6.000000000000000e-01,1,4.970000088214874e-01,4.970000088214874e-01,0.000000000000000e+00,0.000000000000000e+00
6.415560051797206e-02,4.235500007710631e+02,6.386216308496093e-02,-2.283552430244331e-06,6.394661719326135e-02,-2.800723476399509e-03,4.126750120465072e-03,-2.827255389825998e-07,4.131978231931279e-03,0.000000000000000e+00,0.000000000000000e+00,0.000000000000000e+00,9.999999999998001e+01,-1.289504848784447e-13,0.000000000000000e+00,2.860663101358728e-03,0.000000000000000e+00,0.000000000000000e+00,9.709371998403550e-07,1.278000000000000e-09,4.680000000000000e+03,6.000000000000001e-01,1,4.979999959468842e-01,4.979999959468842e-01,0.000000000000000e+00,0.000000000000000e+00
6.402779835460956e-02,4.233499973855193e+02,6.373102844228236e-02,-2.224681952421344e-06,6.381365274172306e-02,-2.819384645640018e-03,4.119787476871292e-03,-2.754368131568973e-07,4.124902314455688e-03,0.000000000000000e+00,0.000000000000000e+00,0.000000000000000e+00,9.999999999998001e+01,-1.309865797621178e-13,0.000000000000000e+00,2.864791881126119e-03,0.000000000000000e+00,0.000000000000000e+00,9.709786005411623e-07,1.278000000000000e-09,4.680000000000000e+03,6.000000000000000e-01,1,4.990000128746033e-01,4.990000128746033e-01,0.000000000000000e+00,0.000000000000000e+00
6.389999999998386e-02,4.231499999604400e+02,6.359989770765452e-02,-2.165813229045619e-06,6.368069225276714e-02,-2.838045258743759e-03,4.112825040776948e-03,-2.681483045484747e-07,4.117826607855301e-03,0.000000000000000e+00,0.000000000000000e+00,0.000000000000000e+00,9.999999999998001e+01,-1.330226139664619e-13,0.000000000000000e+00,2.868920537848367e-03,0.000000000000000e+00,0.000000000000000e+00,9.710200000081538e-07,1.278000000000000e-09,4.680000000000000e+03,6.000000000000000e-01,1,5.000000000000000e-01,5.000000000000000e-01,0.000000000000000e+00,0.000000000000000e+00
6.377220164535816e-02,4.229500025353606e+02,6.346876697302670e-02,-2.106944505669892e-06,6.354773176381123e-02,-2.856705871847501e-03,4.105862604682605e-03,-2.608597959400521e-07,4.110750901254914e-03,0.000000000000000e+00,0.000000000000000e+00,0.000000000000000e+00,9.999999999998001e+01,-1.350586481708061e-13,0.000000000000000e+00,2.873049194570616e-03,0.000000000000000e+00,0.000000000000000e+00,9.710613994751452e-07,1.278000000000000e-09,4.680000000000000e+03,6.000000000000000e-01,1,5.009999871253967e-01,5.009999871253967e-01,0.000000000000000e+00,0.000000000000000e+00
6.364440329073245e-02,4.227500051102813e+02,6.333763623839887e-02,-2.048075782294166e-06,6.341477127485531e-02,-2.875366484951242e-03,4.098900168588262e-03,-2.535712873316295e-07,4.103675194654528e-03,0.000000000000000e+00,0.000000000000000e+00,0.000000000000000e+00,9.999999999998001e+01,-1.370946823751502e-13,0.000000000000000e+00,2.877177851292864e-03,0.000000000000000e+00,0.000000000000000e+00,9.711027989421366e-07,1.278000000000000e-09,4.680000000000000e+03,6.000000000000000e-01,1,5.019999742507935e-01,5.019999742507935e-01,0.000000000000000e+00,0.000000000000000e+00
6.351659731863316e-02,4.225499957642730e+02,6.320649768766955e-02,-1.989203550023919e-06,6.328180286073465e-02,-2.894028210328519e-03,4.091937317495045e-03,-2.462823442886471e-07,4.096599066303733e-03,0.000000000000000e+00,0.000000000000000e+00,0.000000000000000e+00,9.999999999998001e+01,-1.391308379381523e-13,0.000000000000000e+00,2.881306754105398e-03,0.000000000000000e+00,0.000000000000000e+00,9.711442008767604e-07,1.278000000000000e-09,4.680000000000000e+03,6.000000000000000e-01,1,5.030000209808350e-01,5.030000209808350e-01,0.000000000000000e+00,0.000000000000000e+00
6.338879896400745e-02,4.223499983391936e+02,6.307536695304172e-02,-1.930334826648194e-06,6.314884237177873e-02,-2.912688823432260e-03,4.084974881400702e-03,-2.389938356802245e-07,4.089523359703346e-03,0.000000000000000e+00,0.000000000000000e+00,0.000000000000000e+00,9.999999999998001e+01,-1.411668721424964e-13,0.000000000000000e+00,2.885435410827647e-03,0.000000000000000e+00,0.000000000000000e+00,9.711856003437518e-07,1.278000000000000e-09,4.680000000000000e+03,6.000000000000000e-01,1,5.040000081062317e-01,5.040000081062317e-01,0.000000000000000e+00,0.000000000000000e+00
6.326100060938175e-02,4.221500009141142e+02,6.294423621841390e-02,-1.871466103272467e-06,6.301588188282281e-02,-2.931349436536002e-03,4.078012445306358e-03,-2.317053270718019e-07,4.082447653102958e-03,0.000000000000000e+00,0.000000000000000e+00,0.000000000000000e+00,9.999999999998001e+01,-1.432029063468405e-13,0.000000000000000e+00,2.889564067549894e-03,0.000000000000000e+00,0.000000000000000e+00,9.712269998107432e-07,1.278000000000000e-09,4.680000000000000e+03,6.000000000000000e-01,1,5.049999952316284e-01,5.049999952316284e-01,0.000000000000000e+00,0.000000000000000e+00
6.313320225475605e-02,4.219500034890349e+02,6.281310548378607e-02,-1.812597379896741e-06,6.288292139386691e-02,-2.950010049639743e-03,4.071050009212015e-03,-2.244168184633793e-07,4.075371946502572e-03,0.000000000000000e+00,0.000000000000000e+00,0.000000000000000e+00,9.999999999998002e+01,-1.452389405511847e-13,0.000000000000000e+00,2.893692724272143e-03,0.000000000000000e+00,0.000000000000000e+00,9.712683992777346e-07,1.278000000000000e-09,4.680000000000000e+03,6.000000000000000e-01,1,5.059999823570251e-01,5.059999823570251e-01,0.000000000000000e+00,0.000000000000000e+00
6.300539628265674e-02,4.217499941430266e+02,6.268196693305675e-02,-1.753725147626494e-06,6.274995297974625e-02,-2.968671775017020e-03,4.064087158118799e-03,-2.171278754203970e-07,4.068295818151777e-03,0.000000000000000e+00,0.000000000000000e+00,0.000000000000000e+00,9.999999999998001e+01,-1.472750961141867e-13,0.000000000000000e+00,2.897821627084677e-03,0.000000000000000e+00,0.000000000000000e+00,9.713098012123584e-07,1.278000000000000e-09,4.680000000000000e+03,6.000000000000000e-01,1,5.070000290870667e-01,5.070000290870667e-01,0.000000000000000e+00,0.000000000000000e+00
6.287759792803103e-02,4.215499967179474e+02,6.255083619842891e-02,-1.694856424250768e-06,6.261699249079034e-02,-2.987332388120761e-03,4.057124722024455e-03,-2.098393668119743e-07,4.061220111551390e-03,0.000000000000000e+00,0.000000000000000e+00,0.000000000000000e+00,9.999999999998001e+01,-1.493111303185309e-13,0.000000000000000e+00,2.901950283806925e-03,0.000000000000000e+00,0.000000000000000e+00,9.713512006793498e-07,1.278000000000000e-09,4.680000000000000e+03,6.000000000000000e-01,1,5.080000162124634e-01,5.080000162124634e-01,0.000000000000000e+00,0.000000000000000e+00
6.274979957340533e-02,4.213499992928680e+02,6.241970546380109e-02,-1.635987700875042e-06,6.248403200183442e-02,-3.005993001224502e-03,4.050162285930112e-03,-2.025508582035517e-07,4.054144404951003e-03,0.000000000000000e+00,0.000000000000000e+00,0.000000000000000e+00,9.999999999998001e+01,-1.513471645228750e-13,0.000000000000000e+00,2.906078940529174e-03,0.000000000000000e+00,0.000000000000000e+00,9.713926001463412e-07,1.278000000000000e-09,4.680000000000000e+03,6.000000000000000e-01,1,5.090000033378601e-01,5.090000033378601e-01,0.000000000000000e+00,0.000000000000000e+00
6.262200121877963e-02,4.211500018677886e+02,6.228857472917326e-02,-1.577118977499316e-06,6.235107151287850e-02,-3.024653614328244e-03,4.043199849835769e-03,-1.952623495951291e-07,4.047068698350616e-03,0.000000000000000e+00,0.000000000000000e+00,0.000000000000000e+00,9.999999999997999e+01,-1.533831987272192e-13,0.000000000000000e+00,2.910207597251422e-03,0.000000000000000e+00,0.000000000000000e+00,9.714339996133327e-07,1.278000000000000e-09,4.680000000000000e+03,6.000000000000000e-01,1,5.099999904632568e-01,5.099999904632568e-01,0.000000000000000e+00,0.000000000000000e+00
6.249420286415393e-02,4.209500044427093e+02,6.215744399454544e-02,-1.518250254123590e-06,6.221811102392259e-02,-3.043314227431986e-03,4.036237413741425e-03,-1.879738409867065e-07,4.039992991750230e-03,0.000000000000000e+00,0.000000000000000e+00,0.000000000000000e+00,9.999999999998001e+01,-1.554192329315633e-13,0.000000000000000e+00,2.914336253973670e-03,0.000000000000000e+00,0.000000000000000e+00,9.714753990803241e-07,1.278000000000000e-09,4.680000000000000e+03,6.000000000000000e-01,1,5.109999775886536e-01,5.109999775886536e-01,0.000000000000000e+00,0.000000000000000e+00
6.236639689205463e-02,4.207499950967010e+02,6.202630544381611e-02,-1.459378021853343e-06,6.208514260980193e-02,-3.061975952809262e-03,4.029274562648209e-03,-1.806848979437242e-07,4.032916863399435e-03,0.000000000000000e+00,0.000000000000000e+00,0.000000000000000e+00,9.999999999998001e+01,-1.574553884945654e-13,0.000000000000000e+00,2.918465156786204e-03,0.000000000000000e+00,0.000000000000000e+00,9.715168010149478e-07,1.278000000000000e-09,4.680000000000000e+03,6.000000000000000e-01,1,5.120000243186951e-01,5.120000243186951e-01,0.000000000000000e+00,0.000000000000000e+00
6.223859853742893e-02,4.205499976716216e+02,6.189517470918829e-02,-1.400509298477617e-06,6.195218212084601e-02,-3.080636565913003e-03,4.022312126553866e-03,-1.733963893353016e-07,4.025841156799048e-03,0.000000000000000e+00,0.000000000000000e+00,0.000000000000000e+00,9.999999999998001e+01,-1.594914226989096e-13,0.000000000000000e+00,2.922593813508453e-03,0.000000000000000e+00,0.000000000000000e+00,9.715582004819392e-07,1.278000000000000e-09,4.680000000000000e+03,6.000000000000000e-01,1,5.130000114440918e-01,5.130000114440918e-01,0.000000000000000e+00,0.000000000000000e+00
6.211080018280322e-02,4.203500002465423e+02,6.176404397456046e-02,-1.341640575101891e-06,6.181922163189010e-02,-3.099297179016745e-03,4.015349690459522e-03,-1.661078807268790e-07,4.018765450198661e-03,0.000000000000000e+00,0.000000000000000e+00,0.000000000000000e+00,9.999999999998002e+01,-1.615274569032537e-13,0.000000000000000e+00,2.926722470230701e-03,0.000000000000000e+00,0.000000000000000e+00,9.715995999489307e-07,1.278000000000000e-09,4.680000000000000e+03,6.000000000000000e-01,1,5.139999985694885e-01,5.139999985694885e-01,0.000000000000000e+00,0.000000000000000e+00
6.198300182817752e-02,4.201500028214629e+02,6.163291323993263e-02,-1.282771851726165e-06,6.168626114293418e-02,-3.117957792120486e-03,4.008387254365179e-03,-1.588193721184564e-07,4.011689743598274e-03,0.000000000000000e+00,0.000000000000000e+00,0.000000000000000e+00,9.999999999998001e+01,-1.635634911075978e-13,0.000000000000000e+00,2.930851126952949e-03,0.000000000000000e+00,0.000000000000000e+00,9.716409994159221e-07,1.278000000000000e-09,4.680000000000000e+03,6.000000000000000e-01,1,5.149999856948853e-01,5.149999856948853e-01,0.000000000000000e+00,0.000000000000000e+00
6.185520347355182e-02,4.199500053963835e+02,6.150178250530480e-02,-1.223903128350439e-06,6.155330065397827e-02,-3.136618405224227e-03,4.001424818270835e-03,-1.515308635100337e-07,4.004614036997887e-03,0.000000000000000e+00,0.000000000000000e+00,0.000000000000000e+00,9.999999999998001e+01,-1.655995253119419e-13,0.000000000000000e+00,2.934979783675198e-03,0.000000000000000e+00,0.000000000000000e+00,9.716823988829135e-07,1.278000000000000e-09,4.680000000000000e+03,6.000000000000000e-01,1,5.159999728202820e-01,5.159999728202820e-01,0.000000000000000e+00,0.000000000000000e+00
6.172739750145251e-02,4.197499960503753e+02,6.137064395457548e-02,-1.165030896080192e-06,6.142033223985760e-02,-3.155280130601505e-03,3.994461967177618e-03,-1.442419204670514e-07,3.997537908647092e-03,0.000000000000000e+00,0.000000000000000e+00,0.000000000000000e+00,9.999999999998001e+01,-1.676356808749440e-13,0.000000000000000e+00,2.939108686487731e-03,0.000000000000000e+00,0.000000000000000e+00,9.717238008175372e-07,1.278000000000000e-09,4.680000000000000e+03,6.000000000000000e-01,1,5.170000195503235e-01,5.170000195503235e-01,0.000000000000000e+00,0.000000000000000e+00
6.159959914682681e-02,4.195499986252959e+02,6.123951321994765e-02,-1.106162172704466e-06,6.128737175090169e-02,-3.173940743705246e-03,3.987499531083275e-03,-1.369534118586288e-07,3.990462202046705e-03,0.000000000000000e+00,0.000000000000000e+00,0.000000000000000e+00,9.999999999998001e+01,-1.696717150792881e-13,0.000000000000000e+00,2.943237343209980e-03,0.000000000000000e+00,0.000000000000000e+00,9.717652002845287e-07,1.278000000000000e-09,4.680000000000000e+03,6.000000000000000e-01,1,5.180000066757202e-01,5.180000066757202e-01,0.000000000000000e+00,0.000000000000000e+00
6.147180079220111e-02,4.193500012002165e+02,6.110838248531982e-02,-1.047293449328739e-06,6.115441126194578e-02,-3.192601356808987e-03,3.980537094988932e-03,-1.296649032502061e-07,3.983386495446319e-03,0.000000000000000e+00,0.000000000000000e+00,0.000000000000000e+00,9.999999999998001e+01,-1.717077492836323e-13,0.000000000000000e+00,2.947365999932228e-03,0.000000000000000e+00,0.000000000000000e+00,9.718065997515201e-07,1.278000000000000e-09,4.680000000000000e+03,6.000000000000000e-01,1,5.189999938011169e-01,5.189999938011169e-01,0.000000000000000e+00,0.000000000000000e+00
6.134400243757540e-02,4.191500037751372e+02,6.097725175069199e-02,-9.884247259530132e-07,6.102145077298986e-02,-3.211261969912729e-03,3.973574658894588e-03,-1.223763946417835e-07,3.976310788845932e-03,0.000000000000000e+00,0.000000000000000e+00,0.000000000000000e+00,9.999999999998001e+01,-1.737437834879764e-13,0.000000000000000e+00,2.951494656654476e-03,0.000000000000000e+00,0.000000000000000e+00,9.718479992185115e-07,1.278000000000000e-09,4.680000000000000e+03,6.000000000000000e-01,1,5.199999809265137e-01,5.199999809265137e-01,0.000000000000000e+00,0.000000000000000e+00
6.121619646547617e-02,4.189499944291445e+02,6.085119725958904e-02,-9.696681903609235e-07,6.089448505417985e-02,-3.229099512270581e-03,3.966875514448446e-03,-1.200541569018111e-07,3.969555235065563e-03,0.000000000000000e+00,0.000000000000000e+00,0.000000000000000e+00,9.999999999998001e+01,-1.665042961658871e-13,0.000000000000000e+00,2.955352738481855e-03,0.000000000000000e+00,0.000000000000000e+00,9.718894011531325e-07,1.278000000000000e-09,4.680000000000000e+03,6.000000000000000e-01,1,5.210000276565552e-01,5.210000276565552e-01,0.000000000000000e+00,0.000000000000000e+00
6.108839811085055e-02,4.187499970040806e+02,6.072515037852384e-02,-9.509135377205138e-07,6.076752701723732e-02,-3.246935975760139e-03,3.960176774312795e-03,-1.177321522891894e-07,3.962800090042288e-03,0.000000000000000e+00,0.000000000000000e+00,0.000000000000000e+00,9.999999999998001e+01,-1.592650634393520e-13,0.000000000000000e+00,2.959210585195685e-03,0.000000000000000e+00,0.000000000000000e+00,9.719308006201214e-07,1.278000000000000e-09,4.680000000000000e+03,6.000000000000000e-01,1,5.220000147819519e-01,5.220000147819519e-01,0.000000000000000e+00,0.000000000000000e+00
6.096059975622491e-02,4.185499995790167e+02,6.059910349745864e-02,-9.321588850801042e-07,6.064056898029479e-02,-3.264772439249697e-03,3.953478034177144e-03,-1.154101476765678e-07,3.956044945019012e-03,0.000000000000000e+00,0.000000000000000e+00,0.000000000000000e+00,9.999999999998001e+01,-1.520258307128169e-13,0.000000000000000e+00,2.963068431909515e-03,0.000000000000000e+00,0.000000000000000e+00,9.719722000871103e-07,1.278000000000000e-09,4.680000000000000e+03,6.000000000000000e-01,1,5.230000019073486e-01,5.230000019073486e-01,0.000000000000000e+00,0.000000000000000e+00
6.083280140159927e-02,4.183500021539529e+02,6.047305661639343e-02,-9.134042324396945e-07,6.051361094335226e-02,-3.282608902739254e-03,3.946779294041493e-03,-1.130881430639462e-07,3.949289799995735e-03,0.000000000000000e+00,0.000000000000000e+00,0.000000000000000e+00,9.999999999998001e+01,-1.447865979862818e-13,0.000000000000000e+00,2.966926278623345e-03,0.000000000000000e+00,0.000000000000000e+00,9.720135995540989e-07,1.278000000000000e-09,4.680000000000000e+03,6.000000000000000e-01,1,5.239999890327454e-01,5.239999890327454e-01,0.000000000000000e+00,0.000000000000000e+00
6.070500304697365e-02,4.181500047288890e+02,6.034700973532823e-02,-8.946495797992850e-07,6.038665290640973e-02,-3.300445366228812e-03,3.940080553905842e-03,-1.107661384513246e-07,3.942534654972459e-03,0.000000000000000e+00,0.000000000000000e+00,0.000000000000000e+00,9.999999999998001e+01,-1.375473652597467e-13,0.000000000000000e+00,2.970784125337175e-03,0.000000000000000e+00,0.000000000000000e+00,9.720549990210878e-07,1.278000000000000e-09,4.680000000000000e+03,6.000000000000000e-01,1,5.249999761581421e-01,5.249999761581421e-01,0.000000000000000e+00,0.000000000000000e+00
6.057719707487441e-02,4.179499953828962e+02,6.022095534118672e-02,-8.758938092800747e-07,6.025968730208108e-02,-3.318282892868128e-03,3.933381414489024e-03,-1.084439954346609e-07,3.935779107305980e-03,0.000000000000000e+00,0.000000000000000e+00,0.000000000000000e+00,9.999999999998001e+01,-1.303077010357612e-13,0.000000000000000e+00,2.974642201999548e-03,0.000000000000000e+00,0.000000000000000e+00,9.720964009557090e-07,1.278000000000000e-09,4.680000000000000e+03,6.000000000000000e-01,1,5.260000228881836e-01,5.260000228881836e-01,0.000000000000000e+00,0.000000000000000e+00
6.044939872024878e-02,4.177499979578324e+02,6.009490846012151e-02,-8.571391566396650e-07,6.013272926513855e-02,-3.336119356357686e-03,3.926682674353373e-03,-1.061219908220393e-07,3.929023962282703e-03,0.000000000000000e+00,0.000000000000000e+00,0.000000000000000e+00,9.999999999998001e+01,-1.230684683092261e-13,0.000000000000000e+00,2.978500048713378e-03,0.000000000000000e+00,0.000000000000000e+00,9.721378004226977e-07,1.278000000000000e-09,4.680000000000000e+03,6.000000000000000e-01,1,5.270000100135803e-01,5.270000100135803e-01,0.000000000000000e+00,0.000000000000000e+00
6.032160036562315e-02,4.175500005327685e+02,5.996886157905632e-02,-8.383845039992554e-07,6.000577122819602e-02,-3.353955819847243e-03,3.919983934217722e-03,-1.037999862094177e-07,3.922268817259427e-03,0.000000000000000e+00,0.000000000000000e+00,0.000000000000000e+00,9.999999999998002e+01,-1.158292355826910e-13,0.000000000000000e+00,2.982357895427209e-03,0.000000000000000e+00,0.000000000000000e+00,9.721791998896866e-07,1.278000000000000e-09,4.680000000000000e+03,6.000000000000000e-01,1,5.279999971389771e-01,5.279999971389771e-01,0.000000000000000e+00,0.000000000000000e+00
6.019380201099751e-02,4.173500031077047e+02,5.984281469799111e-02,-8.196298513588457e-07,5.987881319125349e-02,-3.371792283336801e-03,3.913285194082071e-03,-1.014779815967961e-07,3.915513672236151e-03,0.000000000000000e+00,0.000000000000000e+00,0.000000000000000e+00,9.999999999998001e+01,-1.085900028561559e-13,0.000000000000000e+00,2.986215742141038e-03,0.000000000000000e+00,0.000000000000000e+00,9.722205993566755e-07,1.278000000000000e-09,4.680000000000000e+03,6.000000000000000e-01,1,5.289999842643738e-01,5.289999842643738e-01,0.000000000000000e+00,0.000000000000000e+00
6.006600365637189e-02,4.171500056826409e+02,5.971676781692591e-02,-8.008751987184363e-07,5.975185515431096e-02,-3.389628746826359e-03,3.906586453946420e-03,-9.915597698417447e-08,3.908758527212874e-03,0.000000000000000e+00,0.000000000000000e+00,0.000000000000000e+00,9.999999999998001e+01,-1.013507701296208e-13,0.000000000000000e+00,2.990073588854868e-03,0.000000000000000e+00,0.000000000000000e+00,9.722619988236644e-07,1.278000000000000e-09,4.680000000000000e+03,6.000000000000000e-01,1,5.299999713897705e-01,5.299999713897705e-01,0.000000000000000e+00,0.000000000000000e+00
5.993819768427264e-02,4.169499963366480e+02,5.959071342278439e-02,-7.821194281992257e-07,5.962488954998230e-02,-3.407466273465674e-03,3.899887314529601e-03,-9.683383396751085e-08,3.902002979546394e-03,0.000000000000000e+00,0.000000000000000e+00,0.000000000000000e+00,9.999999999998001e+01,-9.411110590563525e-14,0.000000000000000e+00,2.993931665517241e-03,0.000000000000000e+00,0.000000000000000e+00,9.723034007582853e-07,1.278000000000000e-09,4.680000000000000e+03,5.999999999999999e-01,1,5.310000181198120e-01,5.310000181198120e-01,0.000000000000000e+00,0.000000000000000e+00
5.981039932964702e-02,4.167499989115842e+02,5.946466654171920e-02,-7.633647755588161e-07,5.949793151303977e-02,-3.425302736955232e-03,3.893188574393950e-03,-9.451182935488924e-08,3.895247834523118e-03,0.000000000000000e+00,0.000000000000000e+00,0.000000000000000e+00,9.999999999998002e+01,-8.687187317910018e-14,0.000000000000000e+00,2.997789512231072e-03,0.000000000000000e+00,0.000000000000000e+00,9.723448002252742e-07,1.278000000000000e-09,4.680000000000000e+03,6.000000000000000e-01,1,5.320000052452087e-01,5.320000052452087e-01,0.000000000000000e+00,0.000000000000000e+00
5.968260097502139e-02,4.165500014865204e+02,5.933861966065400e-02,-7.446101229184066e-07,5.937097347609725e-02,-3.443139200444790e-03,3.886489834258299e-03,-9.218982474226763e-08,3.888492689499843e-03,0.000000000000000e+00,0.000000000000000e+00,0.000000000000000e+00,9.999999999998001e+01,-7.963264045256510e-14,0.000000000000000e+00,3.001647358944902e-03,0.000000000000000e+00,0.000000000000000e+00,9.723861996922631e-07,1.278000000000000e-09,4.680000000000000e+03,6.000000000000000e-01,1,5.329999923706055e-01,5.329999923706055e-01,0.000000000000000e+00,0.000000000000000e+00
5.955480262039575e-02,4.163500040614565e+02,5.921257277958879e-02,-7.258554702779969e-07,5.924401543915471e-02,-3.460975663934347e-03,3.879791094122647e-03,-8.986782012964599e-08,3.881737544476566e-03,0.000000000000000e+00,0.000000000000000e+00,0.000000000000000e+00,9.999999999998001e+01,-7.239340772602997e-14,0.000000000000000e+00,3.005505205658731e-03,0.000000000000000e+00,0.000000000000000e+00,9.724275991592518e-07,1.278000000000000e-09,4.680000000000000e+03,5.999999999999999e-01,1,5.339999794960022e-01,5.339999794960022e-01,0.000000000000000e+00,0.000000000000000e+00
5.942699664829652e-02,4.161499947154638e+02,5.908651838544729e-02,-7.070996997587866e-07,5.911704983482607e-02,-3.478813190573663e-03,3.873091954705830e-03,-8.754567711298238e-08,3.874981996810087e-03,0.000000000000000e+00,0.000000000000000e+00,0.000000000000000e+00,9.999999999998001e+01,-6.515374350204443e-14,0.000000000000000e+00,3.009363282321105e-03,0.000000000000000e+00,0.000000000000000e+00,9.724690010938730e-07,1.278000000000000e-09,4.680000000000000e+03,6.000000000000000e-01,1,5.350000262260437e-01,5.350000262260437e-01,0.000000000000000e+00,0.000000000000000e+00
5.929919829367088e-02,4.159499972903999e+02,5.896047150438209e-02,-6.883450471183770e-07,5.899009179788354e-02,-3.496649654063220e-03,3.866393214570179e-03,-8.522367250036078e-08,3.868226851786811e-03,0.000000000000000e+00,0.000000000000000e+00,0.000000000000000e+00,9.999999999998001e+01,-5.791451077550935e-14,0.000000000000000e+00,3.013221129034935e-03,0.000000000000000e+00,0.000000000000000e+00,9.725104005608618e-07,1.278000000000000e-09,4.680000000000000e+03,6.000000000000000e-01,1,5.360000133514404e-01,5.360000133514404e-01,0.000000000000000e+00,0.000000000000000e+00
5.917139993904524e-02,4.157499998653360e+02,5.883442462331688e-02,-6.695903944779672e-07,5.886313376094100e-02,-3.514486117552778e-03,3.859694474434527e-03,-8.290166788773913e-08,3.861471706763534e-03,0.000000000000000e+00,0.000000000000000e+00,0.000000000000000e+00,9.999999999997999e+01,-5.067527804897424e-14,0.000000000000000e+00,3.017078975748765e-03,0.000000000000000e+00,0.000000000000000e+00,9.725518000278505e-07,1.278000000000000e-09,4.680000000000000e+03,5.999999999999999e-01,1,5.370000004768372e-01,5.370000004768372e-01,0.000000000000000e+00,0.000000000000000e+00
5.904360158441962e-02,4.155500024402722e+02,5.870837774225168e-02,-6.508357418375578e-07,5.873617572399847e-02,-3.532322581042336e-03,3.852995734298876e-03,-8.057966327511751e-08,3.854716561740259e-03,0.000000000000000e+00,0.000000000000000e+00,0.000000000000000e+00,9.999999999998001e+01,-4.343604532243917e-14,0.000000000000000e+00,3.020936822462595e-03,0.000000000000000e+00,0.000000000000000e+00,9.725931994948394e-07,1.278000000000000e-09,4.680000000000000e+03,6.000000000000000e-01,1,5.379999876022339e-01,5.379999876022339e-01,0.000000000000000e+00,0.000000000000000e+00
5.891580322979399e-02,4.153500050152084e+02,5.858233086118647e-02,-6.320810891971481e-07,5.860921768705595e-02,-3.550159044531894e-03,3.846296994163225e-03,-7.825765866249592e-08,3.847961416716983e-03,0.000000000000000e+00,0.000000000000000e+00,0.000000000000000e+00,9.999999999998002e+01,-3.619681259590409e-14,0.000000000000000e+00,3.024794669176425e-03,0.000000000000000e+00,0.000000000000000e+00,9.726345989618283e-07,1.278000000000000e-09,4.680000000000000e+03,6.000000000000001e-01,1,5.389999747276306e-01,5.389999747276306e-01,0.000000000000000e+00,0.000000000000000e+00
5.878799725769475e-02,4.151499956692156e+02,5.845627646704497e-02,-6.133253186779376e-07,5.848225208272730e-02,-3.567996571171209e-03,3.839597854746407e-03,-7.593551564583229e-08,3.841205869050503e-03,0.000000000000000e+00,0.000000000000000e+00,0.000000000000000e+00,9.999999999998001e+01,-2.895714837191850e-14,0.000000000000000e+00,3.028652745838798e-03,0.000000000000000e+00,0.000000000000000e+00,9.726760008964495e-07,1.278000000000000e-09,4.680000000000000e+03,6.000000000000000e-01,1,5.400000214576721e-01,5.400000214576721e-01,0.000000000000000e+00,0.000000000000000e+00
5.866019890306912e-02,4.149499982441517e+02,5.833022958597976e-02,-5.945706660375281e-07,5.835529404578476e-02,-3.585833034660767e-03,3.832899114610756e-03,-7.361351103321067e-08,3.834450724027227e-03,0.000000000000000e+00,0.000000000000000e+00,0.000000000000000e+00,9.999999999998001e+01,-2.171791564538344e-14,0.000000000000000e+00,3.032510592552628e-03,0.000000000000000e+00,0.000000000000000e+00,9.727174003634382e-07,1.278000000000000e-09,4.680000000000000e+03,6.000000000000000e-01,1,5.410000085830688e-01,5.410000085830688e-01,0.000000000000000e+00,0.000000000000000e+00
5.853240054844348e-02,4.147500008190879e+02,5.820418270491456e-02,-5.758160133971185e-07,5.822833600884223e-02,-3.603669498150324e-03,3.826200374475104e-03,-7.129150642058904e-08,3.827695579003951e-03,0.000000000000000e+00,0.000000000000000e+00,0.000000000000000e+00,9.999999999998001e+01,-1.447868291884833e-14,0.000000000000000e+00,3.036368439266458e-03,0.000000000000000e+00,0.000000000000000e+00,9.727587998304270e-07,1.278000000000000e-09,4.680000000000000e+03,6.000000000000000e-01,1,5.419999957084656e-01,5.419999957084656e-01,0.000000000000000e+00,0.000000000000000e+00
5.840460219381786e-02,4.145500033940240e+02,5.807813582384935e-02,-5.570613607567089e-07,5.810137797189970e-02,-3.621505961639882e-03,3.819501634339453e-03,-6.896950180796743e-08,3.820940433980674e-03,0.000000000000000e+00,0.000000000000000e+00,0.000000000000000e+00,9.999999999998001e+01,-7.239450192313270e-15,0.000000000000000e+00,3.040226285980288e-03,0.000000000000000e+00,0.000000000000000e+00,9.728001992974159e-07,1.278000000000000e-09,4.680000000000000e+03,6.000000000000000e-01,1,5.429999828338623e-01,5.429999828338623e-01,0.000000000000000e+00,0.000000000000000e+00
5.827679622171862e-02,4.143499940480312e+02,5.795208142970786e-02,-5.383055902374985e-07,5.797441236757105e-02,-3.639343488279197e-03,3.812802494922635e-03,-6.664735879130382e-08,3.814184886314195e-03,0.000000000000000e+00,0.000000000000000e+00,0.000000000000000e+00,9.999999999998001e+01,2.140316722976755e-19,0.000000000000000e+00,3.044084362642661e-03,0.000000000000000e+00,0.000000000000000e+00,9.728416012320369e-07,1.278000000000000e-09,4.680000000000000e+03,6.000000000000000e-01,1,5.440000295639038e-01,5.440000295639038e-01,0.000000000000000e+00,0.000000000000000e+00
5.814899786709299e-02,4.141499966229674e+02,5.782603454864264e-02,-5.195509375970889e-07,5.784745433062852e-02,-3.657179951768755e-03,3.806103754786984e-03,-6.432535417868218e-08,3.807429741290919e-03,0.000000000000000e+00,0.000000000000000e+00,0.000000000000000e+00,9.999999999998001e+01,7.239446758207400e-15,0.000000000000000e+00,3.047942209356491e-03,0.000000000000000e+00,0.000000000000000e+00,9.728830006990258e-07,1.278000000000000e-09,4.680000000000000e+03,6.000000000000000e-01,1,5.450000166893005e-01,5.450000166893005e-01,0.000000000000000e+00,0.000000000000000e+00
5.802119951246736e-02,4.139499991979036e+02,5.769998766757745e-02,-5.007962849566792e-07,5.772049629368599e-02,-3.675016415258313e-03,3.799405014651332e-03,-6.200334956606058e-08,3.800674596267642e-03,0.000000000000000e+00,0.000000000000000e+00,0.000000000000000e+00,9.999999999997999e+01,1.447867948474246e-14,0.000000000000000e+00,3.051800056070321e-03,0.000000000000000e+00,0.000000000000000e+00,9.729244001660147e-07,1.278000000000000e-09,4.680000000000000e+03,6.000000000000000e-01,1,5.460000038146973e-01,5.460000038146973e-01,0.000000000000000e+00,0.000000000000000e+00
5.789340115784172e-02,4.137500017728397e+02,5.757394078651224e-02,-4.820416323162696e-07,5.759353825674346e-02,-3.692852878747870e-03,3.792706274515681e-03,-5.968134495343895e-08,3.793919451244366e-03,0.000000000000000e+00,0.000000000000000e+00,0.000000000000000e+00,9.999999999997999e+01,2.171791221127756e-14,0.000000000000000e+00,3.055657902784151e-03,0.000000000000000e+00,0.000000000000000e+00,9.729657996330034e-07,1.278000000000000e-09,4.680000000000000e+03,6.000000000000000e-01,1,5.469999909400940e-01,5.469999909400940e-01,0.000000000000000e+00,0.000000000000000e+00
5.776560280321610e-02,4.135500043477758e+02,5.744789390544704e-02,-4.632869796758600e-07,5.746658021980093e-02,-3.710689342237428e-03,3.786007534380030e-03,-5.735934034081733e-08,3.787164306221090e-03,0.000000000000000e+00,0.000000000000000e+00,0.000000000000000e+00,9.999999999998001e+01,2.895714493781266e-14,0.000000000000000e+00,3.059515749497981e-03,0.000000000000000e+00,0.000000000000000e+00,9.730071990999922e-07,1.278000000000000e-09,4.680000000000000e+03,6.000000000000000e-01,1,5.479999780654907e-01,5.479999780654907e-01,0.000000000000000e+00,0.000000000000000e+00
5.763779683111686e-02,4.133499950017831e+02,5.732183951130554e-02,-4.445312091566497e-07,5.733961461547228e-02,-3.728526868876744e-03,3.779308394963212e-03,-5.503719732415372e-08,3.780408758554610e-03,0.000000000000000e+00,0.000000000000000e+00,0.000000000000000e+00,9.999999999997999e+01,3.619680916179820e-14,0.000000000000000e+00,3.063373826160355e-03,0.000000000000000e+00,0.000000000000000e+00,9.730486010346134e-07,1.278000000000000e-09,4.680000000000000e+03,6.000000000000000e-01,1,5.490000247955322e-01,5.490000247955322e-01,0.000000000000000e+00,0.000000000000000e+00
5.750999847649123e-02,4.131499975767192e+02,5.719579263024033e-02,-4.257765565162399e-07,5.721265657852975e-02,-3.746363332366302e-03,3.772609654827561e-03,-5.271519271153209e-08,3.773653613531334e-03,0.000000000000000e+00,0.000000000000000e+00,0.000000000000000e+00,9.999999999998001e+01,4.343604188833333e-14,0.000000000000000e+00,3.067231672874185e-03,0.000000000000000e+00,0.000000000000000e+00,9.730900005016021e-07,1.278000000000000e-09,4.680000000000000e+03,6.000000000000000e-01,1,5.500000119209290e-01,5.500000119209290e-01,0.000000000000000e+00,0.000000000000000e+00
5.738220012186560e-02,4.129500001516553e+02,5.706974574917512e-02,-4.070219038758304e-07,5.708569854158722e-02,-3.764199795855859e-03,3.765910914691910e-03,-5.039318809891047e-08,3.766898468508058e-03,0.000000000000000e+00,0.000000000000000e+00,0.000000000000000e+00,9.999999999997999e+01,5.067527461486839e-14,0.000000000000000e+00,3.071089519588015e-03,0.000000000000000e+00,0.000000000000000e+00,9.731313999685910e-07,1.278000000000000e-09,4.680000000000000e+03,6.000000000000000e-01,1,5.509999990463257e-01,5.509999990463257e-01,0.000000000000000e+00,0.000000000000000e+00
5.725440176723996e-02,4.127500027265916e+02,5.694369886810992e-02,-3.882672512354208e-07,5.695874050464469e-02,-3.782036259345417e-03,3.759212174556258e-03,-4.807118348628885e-08,3.760143323484782e-03,0.000000000000000e+00,0.000000000000000e+00,0.000000000000000e+00,9.999999999997999e+01,5.791450734140351e-14,0.000000000000000e+00,3.074947366301845e-03,0.000000000000000e+00,0.000000000000000e+00,9.731727994355799e-07,1.278000000000000e-09,4.680000000000000e+03,6.000000000000000e-01,1,5.519999861717224e-01,5.519999861717224e-01,0.000000000000000e+00,0.000000000000000e+00
5.712660341261433e-02,4.125500053015277e+02,5.681765198704472e-02,-3.695125985950112e-07,5.683178246770216e-02,-3.799872722834974e-03,3.752513434420607e-03,-4.574917887366724e-08,3.753388178461506e-03,0.000000000000000e+00,0.000000000000000e+00,0.000000000000000e+00,9.999999999998002e+01,6.515374006793856e-14,0.000000000000000e+00,3.078805213015675e-03,0.000000000000000e+00,0.000000000000000e+00,9.732141989025686e-07,1.278000000000000e-09,4.680000000000000e+03,6.000000000000000e-01,1,5.529999732971191e-01,5.529999732971191e-01,0.000000000000000e+00,0.000000000000000e+00
5.699879744051510e-02,4.123499959555349e+02,5.669159759290322e-02,-3.507568280758009e-07,5.670481686337351e-02,-3.817710249474290e-03,3.745814295003789e-03,-4.342703585700363e-08,3.746632630795026e-03,0.000000000000000e+00,0.000000000000000e+00,0.000000000000000e+00,9.999999999998001e+01,7.239340429192409e-14,0.000000000000000e+00,3.082663289678048e-03,0.000000000000000e+00,0.000000000000000e+00,9.732556008371897e-07,1.278000000000000e-09,4.680000000000000e+03,6.000000000000000e-01,1,5.540000200271606e-01,5.540000200271606e-01,0.000000000000000e+00,0.000000000000000e+00
5.687099908588946e-02,4.121499985304710e+02,5.656555071183801e-02,-3.320021754353913e-07,5.657785882643097e-02,-3.835546712963848e-03,3.739115554868138e-03,-4.110503124438201e-08,3.739877485771750e-03,0.000000000000000e+00,0.000000000000000e+00,0.000000000000000e+00,9.999999999998001e+01,7.963263701845920e-14,0.000000000000000e+00,3.086521136391878e-03,0.000000000000000e+00,0.000000000000000e+00,9.732970003041786e-07,1.278000000000000e-09,4.680000000000000e+03,6.000000000000000e-01,1,5.550000071525574e-01,5.550000071525574e-01,0.000000000000000e+00,0.000000000000000e+00
5.674320073126383e-02,4.119500011054072e+02,5.643950383077281e-02,-3.132475227949817e-07,5.645090078948845e-02,-3.853383176453405e-03,3.732416814732486e-03,-3.878302663176040e-08,3.733122340748474e-03,0.000000000000000e+00,0.000000000000000e+00,0.000000000000000e+00,9.999999999998001e+01,8.687186974499427e-14,0.000000000000000e+00,3.090378983105707e-03,0.000000000000000e+00,0.000000000000000e+00,9.733383997711673e-07,1.278000000000000e-09,4.680000000000000e+03,6.000000000000000e-01,1,5.559999942779541e-01,5.559999942779541e-01,0.000000000000000e+00,0.000000000000000e+00
5.661540237663820e-02,4.117500036803434e+02,5.631345694970760e-02,-2.944928701545719e-07,5.632394275254592e-02,-3.871219639942963e-03,3.725718074596835e-03,-3.646102201913876e-08,3.726367195725198e-03,0.000000000000000e+00,0.000000000000000e+00,0.000000000000000e+00,9.999999999998001e+01,9.411110247152939e-14,0.000000000000000e+00,3.094236829819538e-03,0.000000000000000e+00,0.000000000000000e+00,9.733797992381562e-07,1.278000000000000e-09,4.680000000000000e+03,6.000000000000000e-01,1,5.569999814033508e-01,5.569999814033508e-01,0.000000000000000e+00,0.000000000000000e+00
5.648759640453897e-02,4.115499943343505e+02,5.618740255556610e-02,-2.757370996353615e-07,5.619697714821727e-02,-3.889057166582279e-03,3.719018935180017e-03,-3.413887900247515e-08,3.719611648058718e-03,0.000000000000000e+00,0.000000000000000e+00,0.000000000000000e+00,9.999999999998001e+01,1.013507666955150e-13,0.000000000000000e+00,3.098094906481911e-03,0.000000000000000e+00,0.000000000000000e+00,9.734212011727774e-07,1.278000000000000e-09,4.680000000000000e+03,6.000000000000000e-01,1,5.580000281333923e-01,5.580000281333923e-01,0.000000000000000e+00,0.000000000000000e+00
5.635979804991333e-02,4.113499969092867e+02,5.606135567450090e-02,-2.569824469949519e-07,5.607001911127473e-02,-3.906893630071837e-03,3.712320195044366e-03,-3.181687438985353e-08,3.712856503035442e-03,0.000000000000000e+00,0.000000000000000e+00,0.000000000000000e+00,9.999999999998001e+01,1.085899994220500e-13,0.000000000000000e+00,3.101952753195741e-03,0.000000000000000e+00,0.000000000000000e+00,9.734626006397660e-07,1.278000000000000e-09,4.680000000000000e+03,6.000000000000000e-01,1,5.590000152587891e-01,5.590000152587891e-01,0.000000000000000e+00,0.000000000000000e+00
5.623199969528770e-02,4.111499994842229e+02,5.593530878961651e-02,-2.382278154359594e-07,5.594306107163009e-02,-3.924730093920047e-03,3.705621454694492e-03,-2.949487238731212e-08,3.706101357867095e-03,0.000000000000000e+00,0.000000000000000e+00,0.000000000000000e+00,9.999999999998001e+01,1.158292114262830e-13,0.000000000000000e+00,3.105810599261771e-03,0.000000000000000e+00,0.000000000000000e+00,9.735040001067551e-07,1.278000000000000e-09,4.680000000000000e+03,6.000000000000000e-01,1,5.600000023841858e-01,5.600000023841858e-01,0.000000000000000e+00,0.000000000000000e+00
5.610420134066207e-02,4.109500020591740e+02,5.580766085418226e-02,-2.283107880888358e-07,5.581497027199012e-02,-3.942716909871377e-03,3.698832909202714e-03,-2.826704995385868e-08,3.699285396972084e-03,0.000000000000000e+00,0.000000000000000e+00,0.000000000000000e+00,9.999999999998001e+01,1.143813648809770e-13,0.000000000000000e+00,3.109396879238136e-03,0.000000000000000e+00,0.000000000000000e+00,9.735453995737413e-07,1.278000000000000e-09,4.680000000000000e+03,6.000000000000000e-01,1,5.609999895095825e-01,5.609999895095825e-01,0.000000000000000e+00,0.000000000000000e+00
5.597640298603643e-02,4.107500046341252e+02,5.568001291874802e-02,-2.183937607417121e-07,5.568687947235015e-02,-3.960703725822705e-03,3.692044363710936e-03,-2.703922752040523e-08,3.692469436077073e-03,0.000000000000000e+00,0.000000000000000e+00,0.000000000000000e+00,9.999999999997999e+01,1.129335183356709e-13,0.000000000000000e+00,3.112983159214500e-03,0.000000000000000e+00,0.000000000000000e+00,9.735867990407276e-07,1.278000000000000e-09,4.680000000000000e+03,6.000000000000000e-01,1,5.619999766349792e-01,5.619999766349792e-01,0.000000000000000e+00,0.000000000000000e+00
5.584859701393721e-02,4.105499952881473e+02,5.555235737480597e-02,-2.084761422860859e-07,5.555878103780527e-02,-3.978691613885613e-03,3.685255413585106e-03,-2.581133190208957e-08,3.685653068913904e-03,0.000000000000000e+00,0.000000000000000e+00,0.000000000000000e+00,9.999999999998001e+01,1.114855854908748e-13,0.000000000000000e+00,3.116569652952561e-03,0.000000000000000e+00,0.000000000000000e+00,9.736282009753463e-07,1.278000000000000e-09,4.680000000000000e+03,6.000000000000000e-01,1,5.630000233650208e-01,5.630000233650208e-01,0.000000000000000e+00,0.000000000000000e+00
5.572079865931157e-02,4.103499978630986e+02,5.542470943937172e-02,-1.985591149389622e-07,5.543069023816530e-02,-3.996678429836942e-03,3.678466868093329e-03,-2.458350946863613e-08,3.678837108018893e-03,0.000000000000000e+00,0.000000000000000e+00,0.000000000000000e+00,9.999999999998001e+01,1.100377389455688e-13,0.000000000000000e+00,3.120155932928926e-03,0.000000000000000e+00,0.000000000000000e+00,9.736696004423326e-07,1.278000000000000e-09,4.680000000000000e+03,6.000000000000001e-01,1,5.640000104904175e-01,5.640000104904175e-01,0.000000000000000e+00,0.000000000000000e+00
5.559300030468593e-02,4.101500004380496e+02,5.529706150393748e-02,-1.886420875918385e-07,5.530259943852533e-02,-4.014665245788271e-03,3.671678322601550e-03,-2.335568703518269e-08,3.672021147123882e-03,0.000000000000000e+00,0.000000000000000e+00,0.000000000000000e+00,9.999999999998001e+01,1.085898924002628e-13,0.000000000000000e+00,3.123742212905291e-03,0.000000000000000e+00,0.000000000000000e+00,9.737109999093190e-07,1.278000000000000e-09,4.680000000000000e+03,6.000000000000000e-01,1,5.649999976158142e-01,5.649999976158142e-01,0.000000000000000e+00,0.000000000000000e+00
5.546520195006031e-02,4.099500030130009e+02,5.516941356850324e-02,-1.787250602447149e-07,5.517450863888537e-02,-4.032652061739601e-03,3.664889777109773e-03,-2.212786460172925e-08,3.665205186228872e-03,0.000000000000000e+00,0.000000000000000e+00,0.000000000000000e+00,9.999999999998001e+01,1.071420458549568e-13,0.000000000000000e+00,3.127328492881655e-03,0.000000000000000e+00,0.000000000000000e+00,9.737523993763051e-07,1.278000000000000e-09,4.680000000000000e+03,6.000000000000000e-01,1,5.659999847412109e-01,5.659999847412109e-01,0.000000000000000e+00,0.000000000000000e+00
5.533740359543467e-02,4.097500055879520e+02,5.504176563306899e-02,-1.688080328975912e-07,5.504641783924540e-02,-4.050638877690930e-03,3.658101231617995e-03,-2.090004216827581e-08,3.658389225333861e-03,0.000000000000000e+00,0.000000000000000e+00,0.000000000000000e+00,9.999999999998002e+01,1.056941993096507e-13,0.000000000000000e+00,3.130914772858020e-03,0.000000000000000e+00,0.000000000000000e+00,9.737937988432914e-07,1.278000000000000e-09,4.680000000000000e+03,6.000000000000000e-01,1,5.669999718666077e-01,5.669999718666077e-01,0.000000000000000e+00,0.000000000000000e+00
5.520959762333543e-02,4.095499962419742e+02,5.491411008912694e-02,-1.588904144419650e-07,5.491831940470052e-02,-4.068626765753837e-03,3.651312281492165e-03,-1.967214654996014e-08,3.651572858170691e-03,0.000000000000000e+00,0.000000000000000e+00,0.000000000000000e+00,9.999999999998001e+01,1.042462664648546e-13,0.000000000000000e+00,3.134501266596081e-03,0.000000000000000e+00,0.000000000000000e+00,9.738352007779101e-07,1.278000000000000e-09,4.680000000000000e+03,6.000000000000000e-01,1,5.680000185966492e-01,5.680000185966492e-01,0.000000000000000e+00,0.000000000000000e+00
5.508179926870980e-02,4.093499988169253e+02,5.478646215369269e-02,-1.489733870948413e-07,5.479022860506055e-02,-4.086613581705166e-03,3.644523736000388e-03,-1.844432411650670e-08,3.644756897275681e-03,0.000000000000000e+00,0.000000000000000e+00,0.000000000000000e+00,9.999999999998001e+01,1.027984199195486e-13,0.000000000000000e+00,3.138087546572446e-03,0.000000000000000e+00,0.000000000000000e+00,9.738766002448964e-07,1.278000000000000e-09,4.680000000000000e+03,6.000000000000000e-01,1,5.690000057220459e-01,5.690000057220459e-01,0.000000000000000e+00,0.000000000000000e+00
5.495400091408417e-02,4.091500013918765e+02,5.465881421825845e-02,-1.390563597477176e-07,5.466213780542058e-02,-4.104600397656495e-03,3.637735190508610e-03,-1.721650168305326e-08,3.637940936380670e-03,0.000000000000000e+00,0.000000000000000e+00,0.000000000000000e+00,9.999999999998001e+01,1.013505733742426e-13,0.000000000000000e+00,3.141673826548811e-03,0.000000000000000e+00,0.000000000000000e+00,9.739179997118828e-07,1.278000000000000e-09,4.680000000000000e+03,6.000000000000000e-01,1,5.699999928474426e-01,5.699999928474426e-01,0.000000000000000e+00,0.000000000000000e+00
5.482620255945853e-02,4.089500039668276e+02,5.453116628282420e-02,-1.291393324005940e-07,5.453404700578061e-02,-4.122587213607825e-03,3.630946645016832e-03,-1.598867924959982e-08,3.631124975485659e-03,0.000000000000000e+00,0.000000000000000e+00,0.000000000000000e+00,9.999999999997999e+01,9.990272682893654e-14,0.000000000000000e+00,3.145260106525175e-03,0.000000000000000e+00,0.000000000000000e+00,9.739593991788691e-07,1.278000000000000e-09,4.680000000000000e+03,6.000000000000000e-01,1,5.709999799728394e-01,5.709999799728394e-01,0.000000000000000e+00,0.000000000000000e+00
5.469839658735930e-02,4.087499946208499e+02,5.440351073888216e-02,-1.192217139449678e-07,5.440594857123573e-02,-4.140575101670732e-03,3.624157694891002e-03,-1.476078363128415e-08,3.624308608322490e-03,0.000000000000000e+00,0.000000000000000e+00,0.000000000000000e+00,9.999999999998001e+01,9.845479398414044e-14,0.000000000000000e+00,3.148846600263236e-03,0.000000000000000e+00,0.000000000000000e+00,9.740008011134878e-07,1.278000000000000e-09,4.680000000000000e+03,6.000000000000000e-01,1,5.720000267028809e-01,5.720000267028809e-01,0.000000000000000e+00,0.000000000000000e+00
5.457059823273366e-02,4.085499971958010e+02,5.427586280344791e-02,-1.093046865978441e-07,5.427785777159577e-02,-4.158561917622062e-03,3.617369149399224e-03,-1.353296119783071e-08,3.617492647427480e-03,0.000000000000000e+00,0.000000000000000e+00,0.000000000000000e+00,9.999999999998001e+01,9.700694743883442e-14,0.000000000000000e+00,3.152432880239600e-03,0.000000000000000e+00,0.000000000000000e+00,9.740422005804741e-07,1.278000000000000e-09,4.680000000000000e+03,6.000000000000000e-01,1,5.730000138282776e-01,5.730000138282776e-01,0.000000000000000e+00,0.000000000000000e+00
5.444279987810803e-02,4.083499997707521e+02,5.414821486801366e-02,-9.938765925072041e-08,5.414976697195578e-02,-4.176548733573390e-03,3.610580603907446e-03,-1.230513876437727e-08,3.610676686532468e-03,0.000000000000000e+00,0.000000000000000e+00,0.000000000000000e+00,9.999999999997999e+01,9.555910089352839e-14,0.000000000000000e+00,3.156019160215965e-03,0.000000000000000e+00,0.000000000000000e+00,9.740836000474605e-07,1.278000000000000e-09,4.680000000000000e+03,6.000000000000000e-01,1,5.740000009536743e-01,5.740000009536743e-01,0.000000000000000e+00,0.000000000000000e+00
5.431500152348241e-02,4.081500023457033e+02,5.402056693257942e-02,-8.947063190359675e-08,5.402167617231582e-02,-4.194535549524719e-03,3.603792058415669e-03,-1.107731633092382e-08,3.603860725637458e-03,0.000000000000000e+00,0.000000000000000e+00,0.000000000000000e+00,9.999999999998001e+01,9.411125434822237e-14,0.000000000000000e+00,3.159605440192330e-03,0.000000000000000e+00,0.000000000000000e+00,9.741249995144466e-07,1.278000000000000e-09,4.680000000000000e+03,6.000000000000000e-01,1,5.749999880790710e-01,5.749999880790710e-01,0.000000000000000e+00,0.000000000000000e+00
5.418720316885677e-02,4.079500049206545e+02,5.389291899714517e-02,-7.955360455647310e-08,5.389358537267586e-02,-4.212522365476049e-03,3.597003512923891e-03,-9.849493897470382e-09,3.597044764742448e-03,0.000000000000000e+00,0.000000000000000e+00,0.000000000000000e+00,9.999999999998002e+01,9.266340780291637e-14,0.000000000000000e+00,3.163191720168695e-03,0.000000000000000e+00,0.000000000000000e+00,9.741663989814332e-07,1.278000000000000e-09,4.680000000000000e+03,6.000000000000001e-01,1,5.759999752044678e-01,5.759999752044678e-01,0.000000000000000e+00,0.000000000000000e+00
5.405939719675753e-02,4.077499955746766e+02,5.376526345320312e-02,-6.963598610084687e-08,5.376548693813098e-02,-4.230510253538955e-03,3.590214562798061e-03,-8.621598279154720e-09,3.590228397579278e-03,0.000000000000000e+00,0.000000000000000e+00,0.000000000000000e+00,9.999999999997999e+01,9.121547495812022e-14,0.000000000000000e+00,3.166778213906755e-03,0.000000000000000e+00,0.000000000000000e+00,9.742078009160516e-07,1.278000000000000e-09,4.680000000000000e+03,5.999999999999999e-01,1,5.770000219345093e-01,5.770000219345093e-01,0.000000000000000e+00,0.000000000000000e+00
5.393159884213190e-02,4.075499981496278e+02,5.363761551776888e-02,-5.971895875372319e-08,5.363739613849100e-02,-4.248497069490285e-03,3.583426017306283e-03,-7.393775845701277e-09,3.583412436684267e-03,0.000000000000000e+00,0.000000000000000e+00,0.000000000000000e+00,9.999999999998001e+01,8.976762841281421e-14,0.000000000000000e+00,3.170364493883120e-03,0.000000000000000e+00,0.000000000000000e+00,9.742492003830381e-07,1.278000000000000e-09,4.680000000000000e+03,6.000000000000000e-01,1,5.780000090599060e-01,5.780000090599060e-01,0.000000000000000e+00,0.000000000000000e+00
5.380380048750627e-02,4.073500007245789e+02,5.350996758233463e-02,-4.980193140659956e-08,5.350930533885104e-02,-4.266483885441614e-03,3.576637471814506e-03,-6.165953412247837e-09,3.576596475789257e-03,0.000000000000000e+00,0.000000000000000e+00,0.000000000000000e+00,9.999999999998001e+01,8.831978186750820e-14,0.000000000000000e+00,3.173950773859484e-03,0.000000000000000e+00,0.000000000000000e+00,9.742905998500243e-07,1.278000000000000e-09,4.680000000000000e+03,5.999999999999999e-01,1,5.789999961853027e-01,5.789999961853027e-01,0.000000000000000e+00,0.000000000000000e+00
5.367600213288064e-02,4.071500032995301e+02,5.338231964690039e-02,-3.988490405947590e-08,5.338121453921107e-02,-4.284470701392943e-03,3.569848926322728e-03,-4.938130978794396e-09,3.569780514894246e-03,0.000000000000000e+00,0.000000000000000e+00,0.000000000000000e+00,9.999999999998001e+01,8.687193532220217e-14,0.000000000000000e+00,3.177537053835849e-03,0.000000000000000e+00,0.000000000000000e+00,9.743319993170106e-07,1.278000000000000e-09,4.680000000000000e+03,6.000000000000000e-01,1,5.799999833106995e-01,5.799999833106995e-01,0.000000000000000e+00,0.000000000000000e+00
5.354820377825500e-02,4.069500058744812e+02,5.325467171146614e-02,-2.996787671235219e-08,5.325312373957110e-02,-4.302457517344272e-03,3.563060380830950e-03,-3.710308545340951e-09,3.562964553999235e-03,0.000000000000000e+00,0.000000000000000e+00,0.000000000000000e+00,9.999999999998001e+01,8.542408877689614e-14,0.000000000000000e+00,3.181123333812214e-03,0.000000000000000e+00,0.000000000000000e+00,9.743733987839970e-07,1.278000000000000e-09,4.680000000000000e+03,6.000000000000000e-01,1,5.809999704360962e-01,5.809999704360962e-01,0.000000000000000e+00,0.000000000000000e+00
5.342039780615577e-02,4.067499965285034e+02,5.312701616752409e-02,-2.005025825672599e-08,5.312502530502622e-02,-4.320445405407180e-03,3.556271430705120e-03,-2.482412927025291e-09,3.556148186836066e-03,0.000000000000000e+00,0.000000000000000e+00,0.000000000000000e+00,9.999999999998001e+01,8.397615593210003e-14,0.000000000000000e+00,3.184709827550275e-03,0.000000000000000e+00,0.000000000000000e+00,9.744148007186156e-07,1.278000000000000e-09,4.680000000000000e+03,6.000000000000000e-01,1,5.820000171661377e-01,5.820000171661377e-01,0.000000000000000e+00,0.000000000000000e+00
5.329259945153014e-02,4.065499991034546e+02,5.299936823208985e-02,-1.013323090960233e-08,5.299693450538624e-02,-4.338432221358509e-03,3.549482885213342e-03,-1.254590493571849e-09,3.549332225941055e-03,0.000000000000000e+00,0.000000000000000e+00,0.000000000000000e+00,9.999999999998001e+01,8.252830938679401e-14,0.000000000000000e+00,3.188296107526640e-03,0.000000000000000e+00,0.000000000000000e+00,9.744562001856020e-07,1.278000000000000e-09,4.680000000000000e+03,6.000000000000000e-01,1,5.830000042915344e-01,5.830000042915344e-01,0.000000000000000e+00,0.000000000000000e+00
5.316480109690451e-02,4.063500016784058e+02,5.287172029665560e-02,-2.162035624786362e-10,5.286884370574628e-02,-4.356419037309838e-03,3.542694339721565e-03,-2.676806011840299e-11,3.542516265046044e-03,0.000000000000000e+00,0.000000000000000e+00,0.000000000000000e+00,9.999999999998001e+01,8.108046284148799e-14,0.000000000000000e+00,3.191882387503004e-03,0.000000000000000e+00,0.000000000000000e+00,9.744975996525881e-07,1.278000000000000e-09,4.680000000000000e+03,6.000000000000000e-01,1,5.839999914169312e-01,5.839999914169312e-01,0.000000000000000e+00,0.000000000000000e+00
5.303700274227887e-02,4.061500042533569e+02,5.274407236122136e-02,9.700823784645009e-09,5.274075290610631e-02,-4.374405853261168e-03,3.535905794229787e-03,1.201054373335038e-09,3.535700304151033e-03,0.000000000000000e+00,0.000000000000000e+00,0.000000000000000e+00,9.999999999998001e+01,7.963261629618197e-14,0.000000000000000e+00,3.195468667479369e-03,0.000000000000000e+00,0.000000000000000e+00,9.745389991195744e-07,1.278000000000000e-09,4.680000000000000e+03,6.000000000000000e-01,1,5.849999785423279e-01,5.849999785423279e-01,0.000000000000000e+00,0.000000000000000e+00
5.290919677017963e-02,4.059499949073791e+02,5.261641681727931e-02,1.961844224027122e-08,5.261265447156143e-02,-4.392393741324075e-03,3.529116844103957e-03,2.428949991650697e-09,3.528883936987864e-03,0.000000000000000e+00,0.000000000000000e+00,0.000000000000000e+00,9.999999999998002e+01,7.818468345138585e-14,0.000000000000000e+00,3.199055161217430e-03,0.000000000000000e+00,0.000000000000000e+00,9.745804010541931e-07,1.278000000000000e-09,4.680000000000000e+03,6.000000000000000e-01,1,5.860000252723694e-01,5.860000252723694e-01,0.000000000000000e+00,0.000000000000000e+00
5.278139841555401e-02,4.057499974823303e+02,5.248876888184506e-02,2.953546958739486e-08,5.248456367192146e-02,-4.410380557275404e-03,3.522328298612179e-03,3.656772425104139e-09,3.522067976092853e-03,0.000000000000000e+00,0.000000000000000e+00,0.000000000000000e+00,9.999999999998002e+01,7.673683690607983e-14,0.000000000000000e+00,3.202641441193794e-03,0.000000000000000e+00,0.000000000000000e+00,9.746218005211794e-07,1.278000000000000e-09,4.680000000000000e+03,6.000000000000000e-01,1,5.870000123977661e-01,5.870000123977661e-01,0.000000000000000e+00,0.000000000000000e+00
5.265360006092837e-02,4.055500000572814e+02,5.236112094641082e-02,3.945249693451857e-08,5.235647287228150e-02,-4.428367373226733e-03,3.515539753120401e-03,4.884594858557585e-09,3.515252015197843e-03,0.000000000000000e+00,0.000000000000000e+00,0.000000000000000e+00,9.999999999997999e+01,7.528899036077380e-14,0.000000000000000e+00,3.206227721170159e-03,0.000000000000000e+00,0.000000000000000e+00,9.746631999881658e-07,1.278000000000000e-09,4.680000000000000e+03,6.000000000000000e-01,1,5.879999995231628e-01,5.879999995231628e-01,0.000000000000000e+00,0.000000000000000e+00
5.252580170630274e-02,4.053500026322325e+02,5.223347301097657e-02,4.936952428164218e-08,5.222838207264152e-02,-4.446354189178062e-03,3.508751207628624e-03,6.112417292011020e-09,3.508436054302832e-03,0.000000000000000e+00,0.000000000000000e+00,0.000000000000000e+00,9.999999999998002e+01,7.384114381546780e-14,0.000000000000000e+00,3.209814001146524e-03,0.000000000000000e+00,0.000000000000000e+00,9.747045994551521e-07,1.278000000000000e-09,4.680000000000000e+03,6.000000000000000e-01,1,5.889999866485596e-01,5.889999866485596e-01,0.000000000000000e+00,0.000000000000000e+00
5.239800335167711e-02,4.051500052071837e+02,5.210582507554233e-02,5.928655162876588e-08,5.210029127300156e-02,-4.464341005129392e-03,3.501962662136846e-03,7.340239725464467e-09,3.501620093407821e-03,0.000000000000000e+00,0.000000000000000e+00,0.000000000000000e+00,9.999999999997999e+01,7.239329727016176e-14,0.000000000000000e+00,3.213400281122888e-03,0.000000000000000e+00,0.000000000000000e+00,9.747459989221385e-07,1.278000000000000e-09,4.680000000000000e+03,6.000000000000000e-01,1,5.899999737739563e-01,5.899999737739563e-01,0.000000000000000e+00,0.000000000000000e+00
5.227019737957787e-02,4.049499958612059e+02,5.197816953160028e-02,6.920417008439207e-08,5.197219283845668e-02,-4.482328893192299e-03,3.495173712011016e-03,8.568135343780125e-09,3.494803726244652e-03,0.000000000000000e+00,0.000000000000000e+00,0.000000000000000e+00,9.999999999998001e+01,7.094536442536566e-14,0.000000000000000e+00,3.216986774860950e-03,0.000000000000000e+00,0.000000000000000e+00,9.747874008567571e-07,1.278000000000000e-09,4.680000000000000e+03,6.000000000000000e-01,1,5.910000205039978e-01,5.910000205039978e-01,0.000000000000000e+00,0.000000000000000e+00
5.214239902495224e-02,4.047499984361571e+02,5.185052159616603e-02,7.912119743151578e-08,5.184410203881670e-02,-4.500315709143628e-03,3.488385166519238e-03,9.795957777233573e-09,3.487987765349641e-03,0.000000000000000e+00,0.000000000000000e+00,0.000000000000000e+00,9.999999999998001e+01,6.949751788005963e-14,0.000000000000000e+00,3.220573054837314e-03,0.000000000000000e+00,0.000000000000000e+00,9.748288003237434e-07,1.278000000000000e-09,4.680000000000000e+03,6.000000000000000e-01,1,5.920000076293945e-01,5.920000076293945e-01,0.000000000000000e+00,0.000000000000000e+00
5.201460067032661e-02,4.045500010111082e+02,5.172287366073179e-02,8.903822477863943e-08,5.171601123917673e-02,-4.518302525094957e-03,3.481596621027460e-03,1.102378021068701e-08,3.481171804454631e-03,0.000000000000000e+00,0.000000000000000e+00,0.000000000000000e+00,9.999999999998001e+01,6.804967133475361e-14,0.000000000000000e+00,3.224159334813679e-03,0.000000000000000e+00,0.000000000000000e+00,9.748701997907298e-07,1.278000000000000e-09,4.680000000000000e+03,6.000000000000000e-01,1,5.929999947547913e-01,5.929999947547913e-01,0.000000000000000e+00,0.000000000000000e+00
5.188680231570098e-02,4.043500035860594e+02,5.159522572529754e-02,9.895525212576313e-08,5.158792043953676e-02,-4.536289341046286e-03,3.474808075535682e-03,1.225160264414046e-08,3.474355843559620e-03,0.000000000000000e+00,0.000000000000000e+00,0.000000000000000e+00,9.999999999998001e+01,6.660182478944758e-14,0.000000000000000e+00,3.227745614790043e-03,0.000000000000000e+00,0.000000000000000e+00,9.749115992577159e-07,1.278000000000000e-09,4.680000000000000e+03,6.000000000000000e-01,1,5.939999818801880e-01,5.939999818801880e-01,0.000000000000000e+00,0.000000000000000e+00
5.175899634360174e-02,4.041499942400816e+02,5.146757018135549e-02,1.088728705813893e-07,5.145982200499188e-02,-4.554277229109194e-03,3.468019125409853e-03,1.347949826245612e-08,3.467539476396451e-03,0.000000000000000e+00,0.000000000000000e+00,0.000000000000000e+00,9.999999999998001e+01,6.515389194465146e-14,0.000000000000000e+00,3.231332108528104e-03,0.000000000000000e+00,0.000000000000000e+00,9.749530011923346e-07,1.278000000000000e-09,4.680000000000000e+03,6.000000000000000e-01,1,5.950000286102295e-01,5.950000286102295e-01,0.000000000000000e+00,0.000000000000000e+00
5.163119798897611e-02,4.039499968150327e+02,5.133992224592125e-02,1.187898979285130e-07,5.133173120535191e-02,-4.572264045060523e-03,3.461230579918075e-03,1.470732069590956e-08,3.460723515501440e-03,0.000000000000000e+00,0.000000000000000e+00,0.000000000000000e+00,9.999999999998001e+01,6.370604539934545e-14,0.000000000000000e+00,3.234918388504469e-03,0.000000000000000e+00,0.000000000000000e+00,9.749944006593209e-07,1.278000000000000e-09,4.680000000000000e+03,6.000000000000000e-01,1,5.960000157356262e-01,5.960000157356262e-01,0.000000000000000e+00,0.000000000000000e+00
5.150339963435047e-02,4.037499993899839e+02,5.121227431048700e-02,1.287069252756367e-07,5.120364040571195e-02,-4.590250861011852e-03,3.454442034426297e-03,1.593514312936301e-08,3.453907554606429e-03,0.000000000000000e+00,0.000000000000000e+00,0.000000000000000e+00,9.999999999998001e+01,6.225819885403942e-14,0.000000000000000e+00,3.238504668480833e-03,0.000000000000000e+00,0.000000000000000e+00,9.750358001263073e-07,1.278000000000000e-09,4.680000000000000e+03,6.000000000000000e-01,1,5.970000028610229e-01,5.970000028610229e-01,0.000000000000000e+00,0.000000000000000e+00
5.137560127972484e-02,4.035500019649351e+02,5.108462637505275e-02,1.386239526227603e-07,5.107554960607198e-02,-4.608237676963181e-03,3.447653488934519e-03,1.716296556281645e-08,3.447091593711419e-03,0.000000000000000e+00,0.000000000000000e+00,0.000000000000000e+00,9.999999999998001e+01,6.081035230873340e-14,0.000000000000000e+00,3.242090948457198e-03,0.000000000000000e+00,0.000000000000000e+00,9.750771995932936e-07,1.278000000000000e-09,4.680000000000000e+03,6.000000000000000e-01,1,5.979999899864197e-01,5.979999899864197e-01,0.000000000000000e+00,0.000000000000000e+00
5.124780292509921e-02,4.033500045398862e+02,5.095697843961851e-02,1.485409799698840e-07,5.094745880643201e-02,-4.626224492914510e-03,3.440864943442741e-03,1.839078799626989e-08,3.440275632816408e-03,0.000000000000000e+00,0.000000000000000e+00,0.000000000000000e+00,9.999999999998001e+01,5.936250576342737e-14,0.000000000000000e+00,3.245677228433563e-03,0.000000000000000e+00,0.000000000000000e+00,9.751185990602800e-07,1.278000000000000e-09,4.680000000000000e+03,6.000000000000000e-01,1,5.989999771118164e-01,5.989999771118164e-01,0.000000000000000e+00,0.000000000000000e+00
5.111999695299998e-02,4.031499951939084e+02,5.082932288920849e-02,1.584584504280548e-07,5.081936037210449e-02,-4.644212380643165e-03,3.434075992895822e-03,1.961866529109107e-08,3.433459265646002e-03,0.000000000000000e+00,0.000000000000000e+00,0.000000000000000e+00,9.999999999998001e+01,5.791460744002000e-14,0.000000000000000e+00,3.249263715686983e-03,0.000000000000000e+00,0.000000000000000e+00,9.751600009948984e-07,1.278000000000000e-09,4.680000000000000e+03,6.000000000000000e-01,1,6.000000238418579e-01,6.000000238418579e-01,0.000000000000000e+00,0.000000000000000e+00
5.099219859837441e-02,4.029499977688751e+02,5.070140368350186e-02,1.621683808882234e-07,5.069127868847997e-02,-4.662185177874488e-03,3.427269786656864e-03,2.007799001473104e-08,3.426643001250241e-03,0.000000000000000e+00,0.000000000000000e+00,0.000000000000000e+00,9.999999999998001e+01,5.791460744002000e-14,0.000000000000000e+00,3.252578026184809e-03,0.000000000000000e+00,0.000000000000000e+00,9.752014004618799e-07,1.278000000000000e-09,4.680000000000000e+03,6.000000000000000e-01,1,6.010000109672546e-01,6.010000109672546e-01,0.000000000000000e+00,0.000000000000000e+00
5.086440024374885e-02,4.027500003438417e+02,5.057348447779523e-02,1.658783113483921e-07,5.056319700485545e-02,-4.680157975105809e-03,3.420463580417906e-03,2.053731473837102e-08,3.419826736854480e-03,0.000000000000000e+00,0.000000000000000e+00,0.000000000000000e+00,9.999999999998001e+01,5.791460744002000e-14,0.000000000000000e+00,3.255892336682636e-03,0.000000000000000e+00,0.000000000000000e+00,9.752427999288611e-07,1.278000000000000e-09,4.680000000000000e+03,6.000000000000000e-01,1,6.019999980926514e-01,6.019999980926514e-01,0.000000000000000e+00,0.000000000000000e+00
5.073660188912328e-02,4.025500029188083e+02,5.044556527208859e-02,1.695882418085607e-07,5.043511532123094e-02,-4.698130772337132e-03,3.413657374178948e-03,2.099663946201100e-08,3.413010472458719e-03,0.000000000000000e+00,0.000000000000000e+00,0.000000000000000e+00,9.999999999997999e+01,5.791460744002000e-14,0.000000000000000e+00,3.259206647180462e-03,0.000000000000000e+00,0.000000000000000e+00,9.752841993958422e-07,1.278000000000000e-09,4.680000000000000e+03,5.999999999999999e-01,1,6.029999852180481e-01,6.029999852180481e-01,0.000000000000000e+00,0.000000000000000e+00
5.060880353449772e-02,4.023500054937750e+02,5.031764606638196e-02,1.732981722687294e-07,5.030703363760642e-02,-4.716103569568453e-03,3.406851167939991e-03,2.145596418565098e-08,3.406194208062957e-03,0.000000000000000e+00,0.000000000000000e+00,0.000000000000000e+00,9.999999999998001e+01,5.791460744002000e-14,0.000000000000000e+00,3.262520957678288e-03,0.000000000000000e+00,0.000000000000000e+00,9.753255988628234e-07,1.278000000000000e-09,4.680000000000000e+03,6.000000000000000e-01,1,6.039999723434448e-01,6.039999723434448e-01,0.000000000000000e+00,0.000000000000000e+00
5.048099756239856e-02,4.021499961478127e+02,5.018971923599835e-02,1.770083238608323e-07,5.017894431962035e-02,-4.734077438075762e-03,3.400044556014305e-03,2.191531628753043e-08,3.399377537380947e-03,0.000000000000000e+00,0.000000000000000e+00,0.000000000000000e+00,9.999999999998001e+01,5.791460744002000e-14,0.000000000000000e+00,3.265835465726958e-03,0.000000000000000e+00,0.000000000000000e+00,9.753670007974368e-07,1.278000000000000e-09,4.680000000000000e+03,5.999999999999999e-01,1,6.050000190734863e-01,6.050000190734863e-01,0.000000000000000e+00,0.000000000000000e+00
5.035319920777300e-02,4.019499987227794e+02,5.006180003029172e-02,1.807182543210010e-07,5.005086263599585e-02,-4.752050235307084e-03,3.393238349775347e-03,2.237464101117040e-08,3.392561272985186e-03,0.000000000000000e+00,0.000000000000000e+00,0.000000000000000e+00,9.999999999998001e+01,5.791460744002000e-14,0.000000000000000e+00,3.269149776224784e-03,0.000000000000000e+00,0.000000000000000e+00,9.754084002644181e-07,1.278000000000000e-09,4.680000000000000e+03,6.000000000000000e-01,1,6.060000061988831e-01,6.060000061988831e-01,0.000000000000000e+00,0.000000000000000e+00
5.022540085314743e-02,4.017500012977461e+02,4.993388082458509e-02,1.844281847811696e-07,4.992278095237133e-02,-4.770023032538406e-03,3.386432143536390e-03,2.283396573481038e-08,3.385745008589425e-03,0.000000000000000e+00,0.000000000000000e+00,0.000000000000000e+00,9.999999999998002e+01,5.791460744002000e-14,0.000000000000000e+00,3.272464086722611e-03,0.000000000000000e+00,0.000000000000000e+00,9.754497997313993e-07,1.278000000000000e-09,4.680000000000000e+03,6.000000000000000e-01,1,6.069999933242798e-01,6.069999933242798e-01,0.000000000000000e+00,0.000000000000000e+00
5.009760249852187e-02,4.015500038727127e+02,4.980596161887846e-02,1.881381152413383e-07,4.979469926874681e-02,-4.787995829769728e-03,3.379625937297432e-03,2.329329045845036e-08,3.378928744193664e-03,0.000000000000000e+00,0.000000000000000e+00,0.000000000000000e+00,9.999999999998002e+01,5.791460744002000e-14,0.000000000000000e+00,3.275778397220437e-03,0.000000000000000e+00,0.000000000000000e+00,9.754911991983806e-07,1.278000000000000e-09,4.680000000000000e+03,6.000000000000000e-01,1,6.079999804496765e-01,6.079999804496765e-01,0.000000000000000e+00,0.000000000000000e+00
4.996979652642270e-02,4.013499945267504e+02,4.967803478849483e-02,1.918482668334411e-07,4.966660995076075e-02,-4.805969698277037e-03,3.372819325371746e-03,2.375264256032981e-08,3.372112073511654e-03,0.000000000000000e+00,0.000000000000000e+00,0.000000000000000e+00,9.999999999998001e+01,5.791460744002000e-14,0.000000000000000e+00,3.279092905269106e-03,0.000000000000000e+00,0.000000000000000e+00,9.755326011329939e-07,1.278000000000000e-09,4.680000000000000e+03,5.999999999999999e-01,1,6.090000271797180e-01,6.090000271797180e-01,0.000000000000000e+00,0.000000000000000e+00
4.984199817179714e-02,4.011499971017170e+02,4.955011558278820e-02,1.955581972936098e-07,4.953852826713624e-02,-4.823942495508360e-03,3.366013119132788e-03,2.421196728396979e-08,3.365295809115893e-03,0.000000000000000e+00,0.000000000000000e+00,0.000000000000000e+00,9.999999999998002e+01,5.791460744002000e-14,0.000000000000000e+00,3.282407215766933e-03,0.000000000000000e+00,0.000000000000000e+00,9.755740005999754e-07,1.278000000000000e-09,4.680000000000000e+03,6.000000000000000e-01,1,6.100000143051147e-01,6.100000143051147e-01,0.000000000000000e+00,0.000000000000000e+00
4.971419981717158e-02,4.009499996766837e+02,4.942219637708157e-02,1.992681277537785e-07,4.941044658351172e-02,-4.841915292739681e-03,3.359206912893831e-03,2.467129200760976e-08,3.358479544720132e-03,0.000000000000000e+00,0.000000000000000e+00,0.000000000000000e+00,9.999999999997999e+01,5.791460744002000e-14,0.000000000000000e+00,3.285721526264759e-03,0.000000000000000e+00,0.000000000000000e+00,9.756154000669567e-07,1.278000000000000e-09,4.680000000000000e+03,6.000000000000000e-01,1,6.110000014305115e-01,6.110000014305115e-01,0.000000000000000e+00,0.000000000000000e+00
4.958640146254602e-02,4.007500022516503e+02,4.929427717137494e-02,2.029780582139471e-07,4.928236489988720e-02,-4.859888089971003e-03,3.352400706654873e-03,2.513061673124974e-08,3.351663280324371e-03,0.000000000000000e+00,0.000000000000000e+00,0.000000000000000e+00,9.999999999998001e+01,5.791460744002000e-14,0.000000000000000e+00,3.289035836762585e-03,0.000000000000000e+00,0.000000000000000e+00,9.756567995339377e-07,1.278000000000000e-09,4.680000000000000e+03,6.000000000000000e-01,1,6.119999885559082e-01,6.119999885559082e-01,0.000000000000000e+00,0.000000000000000e+00
4.945860310792045e-02,4.005500048266169e+02,4.916635796566830e-02,2.066879886741158e-07,4.915428321626269e-02,-4.877860887202325e-03,3.345594500415915e-03,2.558994145488972e-08,3.344847015928609e-03,0.000000000000000e+00,0.000000000000000e+00,0.000000000000000e+00,9.999999999997999e+01,5.791460744002000e-14,0.000000000000000e+00,3.292350147260411e-03,0.000000000000000e+00,0.000000000000000e+00,9.756981990009190e-07,1.278000000000000e-09,4.680000000000000e+03,6.000000000000000e-01,1,6.129999756813049e-01,6.129999756813049e-01,0.000000000000000e+00,0.000000000000000e+00
4.933079713582128e-02,4.003499954806547e+02,4.903843113528469e-02,2.103981402662187e-07,4.902619389827662e-02,-4.895834755709634e-03,3.338787888490229e-03,2.604929355676917e-08,3.338030345246599e-03,0.000000000000000e+00,0.000000000000000e+00,0.000000000000000e+00,9.999999999997999e+01,5.791460744002000e-14,0.000000000000000e+00,3.295664655309081e-03,0.000000000000000e+00,0.000000000000000e+00,9.757396009355323e-07,1.278000000000000e-09,4.680000000000000e+03,5.999999999999999e-01,1,6.140000224113464e-01,6.140000224113464e-01,0.000000000000000e+00,0.000000000000000e+00
4.920299878119572e-02,4.001499980556214e+02,4.891051192957806e-02,2.141080707263873e-07,4.889811221465211e-02,-4.913807552940956e-03,3.331981682251272e-03,2.650861828040915e-08,3.331214080850838e-03,0.000000000000000e+00,0.000000000000000e+00,0.000000000000000e+00,9.999999999998001e+01,5.791460744002000e-14,0.000000000000000e+00,3.298978965806908e-03,0.000000000000000e+00,0.000000000000000e+00,9.757810004025136e-07,1.278000000000000e-09,4.680000000000000e+03,6.000000000000000e-01,1,6.150000095367432e-01,6.150000095367432e-01,0.000000000000000e+00,0.000000000000000e+00
4.907520042657016e-02,3.999500006305880e+02,4.878259272387143e-02,2.178180011865560e-07,4.877003053102760e-02,-4.931780350172279e-03,3.325175476012314e-03,2.696794300404913e-08,3.324397816455077e-03,0.000000000000000e+00,0.000000000000000e+00,0.000000000000000e+00,9.999999999998001e+01,5.791460744002000e-14,0.000000000000000e+00,3.302293276304734e-03,0.000000000000000e+00,0.000000000000000e+00,9.758223998694949e-07,1.278000000000000e-09,4.680000000000000e+03,6.000000000000000e-01,1,6.159999966621399e-01,6.159999966621399e-01,0.000000000000000e+00,0.000000000000000e+00
4.894740207194460e-02,3.997500032055547e+02,4.865467351816480e-02,2.215279316467246e-07,4.864194884740308e-02,-4.949753147403601e-03,3.318369269773356e-03,2.742726772768910e-08,3.317581552059316e-03,0.000000000000000e+00,0.000000000000000e+00,0.000000000000000e+00,9.999999999998002e+01,5.791460744002000e-14,0.000000000000000e+00,3.305607586802560e-03,0.000000000000000e+00,0.000000000000000e+00,9.758637993364761e-07,1.278000000000000e-09,4.680000000000000e+03,6.000000000000001e-01,1,6.169999837875366e-01,6.169999837875366e-01,0.000000000000000e+00,0.000000000000000e+00
4.881960371731904e-02,3.995500057805213e+02,4.852675431245816e-02,2.252378621068933e-07,4.851386716377856e-02,-4.967725944634922e-03,3.311563063534399e-03,2.788659245132908e-08,3.310765287663555e-03,0.000000000000000e+00,0.000000000000000e+00,0.000000000000000e+00,9.999999999998001e+01,5.791460744002000e-14,0.000000000000000e+00,3.308921897300386e-03,0.000000000000000e+00,0.000000000000000e+00,9.759051988034572e-07,1.278000000000000e-09,4.680000000000000e+03,6.000000000000000e-01,1,6.179999709129333e-01,6.179999709129333e-01,0.000000000000000e+00,0.000000000000000e+00
4.869179774521987e-02,3.993499964345590e+02,4.839882748207455e-02,2.289480136989962e-07,4.838577784579251e-02,-4.985699813142230e-03,3.304756451608713e-03,2.834594455320853e-08,3.303948616981545e-03,0.000000000000000e+00,0.000000000000000e+00,0.000000000000000e+00,9.999999999998002e+01,5.791460744002000e-14,0.000000000000000e+00,3.312236405349056e-03,0.000000000000000e+00,0.000000000000000e+00,9.759466007380709e-07,1.278000000000000e-09,4.680000000000000e+03,6.000000000000000e-01,1,6.190000176429749e-01,6.190000176429749e-01,0.000000000000000e+00,0.000000000000000e+00
4.856399939059430e-02,3.991499990095256e+02,4.827090827636792e-02,2.326579441591648e-07,4.825769616216799e-02,-5.003672610373553e-03,3.297950245369755e-03,2.880526927684851e-08,3.297132352585783e-03,0.000000000000000e+00,0.000000000000000e+00,0.000000000000000e+00,9.999999999998001e+01,5.791460744002000e-14,0.000000000000000e+00,3.315550715846882e-03,0.000000000000000e+00,0.000000000000000e+00,9.759880002050520e-07,1.278000000000000e-09,4.680000000000000e+03,6.000000000000000e-01,1,6.200000047683716e-01,6.200000047683716e-01,0.000000000000000e+00,0.000000000000000e+00
4.843620103596875e-02,3.989500015844923e+02,4.814298907066128e-02,2.363678746193335e-07,4.812961447854347e-02,-5.021645407604875e-03,3.291144039130798e-03,2.926459400048848e-08,3.290316088190022e-03,0.000000000000000e+00,0.000000000000000e+00,0.000000000000000e+00,9.999999999998001e+01,5.791460744002000e-14,0.000000000000000e+00,3.318865026344708e-03,0.000000000000000e+00,0.000000000000000e+00,9.760293996720333e-07,1.278000000000000e-09,4.680000000000000e+03,6.000000000000000e-01,1,6.209999918937683e-01,6.209999918937683e-01,0.000000000000000e+00,0.000000000000000e+00
4.830840268134318e-02,3.987500041594590e+02,4.801506986495464e-02,2.400778050795022e-07,4.800153279491895e-02,-5.039618204836197e-03,3.284337832891840e-03,2.972391872412846e-08,3.283499823794261e-03,0.000000000000000e+00,0.000000000000000e+00,0.000000000000000e+00,9.999999999998001e+01,5.791460744002000e-14,0.000000000000000e+00,3.322179336842535e-03,0.000000000000000e+00,0.000000000000000e+00,9.760707991390145e-07,1.278000000000000e-09,4.680000000000000e+03,6.000000000000000e-01,1,6.219999790191650e-01,6.219999790191650e-01,0.000000000000000e+00,0.000000000000000e+00
4.818059670924402e-02,3.985499948134967e+02,4.788714303457103e-02,2.437879566716051e-07,4.787344347693290e-02,-5.057592073343505e-03,3.277531220966154e-03,3.018327082600791e-08,3.276683153112251e-03,0.000000000000000e+00,0.000000000000000e+00,0.000000000000000e+00,9.999999999998001e+01,5.791460744002000e-14,0.000000000000000e+00,3.325493844891204e-03,0.000000000000000e+00,0.000000000000000e+00,9.761122010736279e-07,1.278000000000000e-09,4.680000000000000e+03,6.000000000000000e-01,1,6.230000257492065e-01,6.230000257492065e-01,0.000000000000000e+00,0.000000000000000e+00
4.805279835461845e-02,3.983499973884633e+02,4.775922382886440e-02,2.474978871317737e-07,4.774536179330838e-02,-5.075564870574828e-03,3.270725014727196e-03,3.064259554964789e-08,3.269866888716490e-03,0.000000000000000e+00,0.000000000000000e+00,0.000000000000000e+00,9.999999999998001e+01,5.791460744002000e-14,0.000000000000000e+00,3.328808155389031e-03,0.000000000000000e+00,0.000000000000000e+00,9.761536005406094e-07,1.278000000000000e-09,4.680000000000000e+03,6.000000000000000e-01,1,6.240000128746033e-01,6.240000128746033e-01,0.000000000000000e+00,0.000000000000000e+00
4.792499999999289e-02,3.981499999634300e+02,4.763130462315777e-02,2.512078175919424e-07,4.761728010968386e-02,-5.093537667806149e-03,3.263918808488238e-03,3.110192027328787e-08,3.263050624320729e-03,0.000000000000000e+00,0.000000000000000e+00,0.000000000000000e+00,9.999999999998001e+01,5.791460744002000e-14,0.000000000000000e+00,3.332122465886857e-03,0.000000000000000e+00,0.000000000000000e+00,9.761950000075904e-07,1.278000000000000e-09,4.680000000000000e+03,6.000000000000000e-01,1,6.250000000000000e-01,6.250000000000000e-01,0.000000000000000e+00,0.000000000000000e+00
4.779720164536733e-02,3.979500025383966e+02,4.750338541745114e-02,2.549177480521110e-07,4.748919842605935e-02,-5.111510465037472e-03,3.257112602249281e-03,3.156124499692784e-08,3.256234359924968e-03,0.000000000000000e+00,0.000000000000000e+00,0.000000000000000e+00,9.999999999998001e+01,5.791460744002000e-14,0.000000000000000e+00,3.335436776384683e-03,0.000000000000000e+00,0.000000000000000e+00,9.762363994745717e-07,1.278000000000000e-09,4.680000000000000e+03,6.000000000000000e-01,1,6.259999871253967e-01,6.259999871253967e-01,0.000000000000000e+00,0.000000000000000e+00
4.766940329074176e-02,3.977500051133633e+02,4.737546621174450e-02,2.586276785122797e-07,4.736111674243483e-02,-5.129483262268793e-03,3.250306396010323e-03,3.202056972056782e-08,3.249418095529207e-03,0.000000000000000e+00,0.000000000000000e+00,0.000000000000000e+00,9.999999999998001e+01,5.791460744002000e-14,0.000000000000000e+00,3.338751086882509e-03,0.000000000000000e+00,0.000000000000000e+00,9.762777989415529e-07,1.278000000000000e-09,4.680000000000000e+03,6.000000000000000e-01,1,6.269999742507935e-01,6.269999742507935e-01,0.000000000000000e+00,0.000000000000000e+00
4.754159731864260e-02,3.975499957674010e+02,4.724753938136089e-02,2.623378301043825e-07,4.723302742444876e-02,-5.147457130776103e-03,3.243499784084637e-03,3.247992182244727e-08,3.242601424847196e-03,0.000000000000000e+00,0.000000000000000e+00,0.000000000000000e+00,9.999999999998001e+01,5.791460744002000e-14,0.000000000000000e+00,3.342065594931179e-03,0.000000000000000e+00,0.000000000000000e+00,9.763192008761663e-07,1.278000000000000e-09,4.680000000000000e+03,6.000000000000000e-01,1,6.280000209808350e-01,6.280000209808350e-01,0.000000000000000e+00,0.000000000000000e+00
4.741379896401704e-02,3.973499983423676e+02,4.711962017565426e-02,2.660477605645512e-07,4.710494574082425e-02,-5.165429928007424e-03,3.236693577845679e-03,3.293924654608725e-08,3.235785160451435e-03,0.000000000000000e+00,0.000000000000000e+00,0.000000000000000e+00,9.999999999998001e+01,5.791460744002000e-14,0.000000000000000e+00,3.345379905429005e-03,0.000000000000000e+00,0.000000000000000e+00,9.763606003431475e-07,1.278000000000000e-09,4.680000000000000e+03,6.000000000000000e-01,1,6.290000081062317e-01,6.290000081062317e-01,0.000000000000000e+00,0.000000000000000e+00
4.728600060939148e-02,3.971500009173343e+02,4.699170096994763e-02,2.697576910247199e-07,4.697686405719974e-02,-5.183402725238746e-03,3.229887371606722e-03,3.339857126972723e-08,3.228968896055674e-03,0.000000000000000e+00,0.000000000000000e+00,0.000000000000000e+00,9.999999999998002e+01,5.791460744002000e-14,0.000000000000000e+00,3.348694215926831e-03,0.000000000000000e+00,0.000000000000000e+00,9.764019998101288e-07,1.278000000000000e-09,4.680000000000000e+03,6.000000000000000e-01,1,6.299999952316284e-01,6.299999952316284e-01,0.000000000000000e+00,0.000000000000000e+00
4.715820225476591e-02,3.969500034923009e+02,4.686378176424099e-02,2.734676214848885e-07,4.684878237357522e-02,-5.201375522470068e-03,3.223081165367764e-03,3.385789599336720e-08,3.222152631659913e-03,0.000000000000000e+00,0.000000000000000e+00,0.000000000000000e+00,9.999999999998001e+01,5.791460744002000e-14,0.000000000000000e+00,3.352008526424658e-03,0.000000000000000e+00,0.000000000000000e+00,9.764433992771101e-07,1.278000000000000e-09,4.680000000000000e+03,6.000000000000000e-01,1,6.309999823570251e-01,6.309999823570251e-01,0.000000000000000e+00,0.000000000000000e+00
4.703039628266674e-02,3.967499941463386e+02,4.673585493385738e-02,2.771777730769914e-07,4.672069305558916e-02,-5.219349390977377e-03,3.216274553442078e-03,3.431724809524666e-08,3.215335960977903e-03,0.000000000000000e+00,0.000000000000000e+00,0.000000000000000e+00,9.999999999998002e+01,5.791460744002000e-14,0.000000000000000e+00,3.355323034473327e-03,0.000000000000000e+00,0.000000000000000e+00,9.764848012117236e-07,1.278000000000000e-09,4.680000000000000e+03,6.000000000000000e-01,1,6.320000290870667e-01,6.320000290870667e-01,0.000000000000000e+00,0.000000000000000e+00
4.690259792804119e-02,3.965499967213053e+02,4.660793572815075e-02,2.808877035371601e-07,4.659261137196465e-02,-5.237322188208699e-03,3.209468347203121e-03,3.477657281888663e-08,3.208519696582141e-03,0.000000000000000e+00,0.000000000000000e+00,0.000000000000000e+00,9.999999999998001e+01,5.791460744002000e-14,0.000000000000000e+00,3.358637344971153e-03,0.000000000000000e+00,0.000000000000000e+00,9.765262006787047e-07,1.278000000000000e-09,4.680000000000000e+03,6.000000000000000e-01,1,6.330000162124634e-01,6.330000162124634e-01,0.000000000000000e+00,0.000000000000000e+00
4.677479957341562e-02,3.963499992962720e+02,4.648001652244411e-02,2.845976339973288e-07,4.646452968834013e-02,-5.255294985440022e-03,3.202662140964163e-03,3.523589754252661e-08,3.201703432186381e-03,0.000000000000000e+00,0.000000000000000e+00,0.000000000000000e+00,9.999999999998001e+01,5.791460744002000e-14,0.000000000000000e+00,3.361951655468980e-03,0.000000000000000e+00,0.000000000000000e+00,9.765676001456860e-07,1.278000000000000e-09,4.680000000000000e+03,6.000000000000000e-01,1,6.340000033378601e-01,6.340000033378601e-01,0.000000000000000e+00,0.000000000000000e+00
4.664700121879006e-02,3.961500018712386e+02,4.635209731673749e-02,2.883075644574974e-07,4.633644800471561e-02,-5.273267782671343e-03,3.195855934725205e-03,3.569522226616659e-08,3.194887167790619e-03,0.000000000000000e+00,0.000000000000000e+00,0.000000000000000e+00,9.999999999998001e+01,5.791460744002000e-14,0.000000000000000e+00,3.365265965966806e-03,0.000000000000000e+00,0.000000000000000e+00,9.766089996126672e-07,1.278000000000000e-09,4.680000000000000e+03,6.000000000000000e-01,1,6.349999904632568e-01,6.349999904632568e-01,0.000000000000000e+00,0.000000000000000e+00
4.651920286416450e-02,3.959500044462052e+02,4.622417811103086e-02,2.920174949176661e-07,4.620836632109110e-02,-5.291240579902665e-03,3.189049728486248e-03,3.615454698980657e-08,3.188070903394858e-03,0.000000000000000e+00,0.000000000000000e+00,0.000000000000000e+00,9.999999999998001e+01,5.791460744002000e-14,0.000000000000000e+00,3.368580276464632e-03,0.000000000000000e+00,0.000000000000000e+00,9.766503990796483e-07,1.278000000000000e-09,4.680000000000000e+03,6.000000000000000e-01,1,6.359999775886536e-01,6.359999775886536e-01,0.000000000000000e+00,0.000000000000000e+00
4.639139689206533e-02,3.957499951002429e+02,4.609625128064723e-02,2.957276465097689e-07,4.608027700310503e-02,-5.309214448409974e-03,3.182243116560562e-03,3.661389909168601e-08,3.181254232712848e-03,0.000000000000000e+00,0.000000000000000e+00,0.000000000000000e+00,9.999999999998001e+01,5.791460744002000e-14,0.000000000000000e+00,3.371894784513302e-03,0.000000000000000e+00,0.000000000000000e+00,9.766918010142618e-07,1.278000000000000e-09,4.680000000000000e+03,6.000000000000000e-01,1,6.370000243186951e-01,6.370000243186951e-01,0.000000000000000e+00,0.000000000000000e+00
4.626359853743976e-02,3.955499976752096e+02,4.596833207494060e-02,2.994375769699376e-07,4.595219531948052e-02,-5.327187245641296e-03,3.175436910321604e-03,3.707322381532599e-08,3.174437968317087e-03,0.000000000000000e+00,0.000000000000000e+00,0.000000000000000e+00,9.999999999998001e+01,5.791460744002000e-14,0.000000000000000e+00,3.375209095011128e-03,0.000000000000000e+00,0.000000000000000e+00,9.767332004812431e-07,1.278000000000000e-09,4.680000000000000e+03,6.000000000000000e-01,1,6.380000114440918e-01,6.380000114440918e-01,0.000000000000000e+00,0.000000000000000e+00
4.613580018281421e-02,3.953500002501763e+02,4.584041286923397e-02,3.031475074301063e-07,4.582411363585601e-02,-5.345160042872618e-03,3.168630704082646e-03,3.753254853896597e-08,3.167621703921326e-03,0.000000000000000e+00,0.000000000000000e+00,0.000000000000000e+00,9.999999999998001e+01,5.791460744002000e-14,0.000000000000000e+00,3.378523405508955e-03,0.000000000000000e+00,0.000000000000000e+00,9.767745999482244e-07,1.278000000000000e-09,4.680000000000000e+03,6.000000000000000e-01,1,6.389999985694885e-01,6.389999985694885e-01,0.000000000000000e+00,0.000000000000000e+00
4.600800182818864e-02,3.951500028251429e+02,4.571249366352734e-02,3.068574378902749e-07,4.569603195223149e-02,-5.363132840103940e-03,3.161824497843689e-03,3.799187326260595e-08,3.160805439525564e-03,0.000000000000000e+00,0.000000000000000e+00,0.000000000000000e+00,9.999999999998001e+01,5.791460744002000e-14,0.000000000000000e+00,3.381837716006781e-03,0.000000000000000e+00,0.000000000000000e+00,9.768159994152056e-07,1.278000000000000e-09,4.680000000000000e+03,6.000000000000000e-01,1,6.399999856948853e-01,6.399999856948853e-01,0.000000000000000e+00,0.000000000000000e+00
4.588020347356300e-02,3.949500054001240e+02,4.558498728697112e-02,3.095724826961713e-07,4.556850662221720e-02,-5.381014018537340e-03,3.155038176055138e-03,3.832802166714538e-08,3.154017944427699e-03,0.000000000000000e+00,0.000000000000000e+00,0.000000000000000e+00,9.999999999998001e+01,5.646678160528746e-14,0.000000000000000e+00,3.384879851514061e-03,0.000000000000000e+00,0.000000000000000e+00,9.768573988821843e-07,1.278000000000000e-09,4.679999999999999e+03,6.000000000000000e-01,1,6.409999728202820e-01,6.409999728202820e-01,0.000000000000000e+00,0.000000000000000e+00
4.575239750146378e-02,3.947499960541763e+02,4.545747331625049e-02,3.122876751011395e-07,4.544097369896196e-02,-5.398896261475103e-03,3.148251450049537e-03,3.866418834585558e-08,3.147230045169950e-03,0.000000000000000e+00,0.000000000000000e+00,0.000000000000000e+00,9.999999999998001e+01,5.501884876049035e-14,0.000000000000000e+00,3.387922164455496e-03,0.000000000000000e+00,0.000000000000000e+00,9.768988008167956e-07,1.278000000000000e-09,4.680000000000001e+03,6.000000000000000e-01,1,6.420000195503235e-01,6.420000195503235e-01,0.000000000000000e+00,0.000000000000000e+00
4.562459914683814e-02,3.945499986291574e+02,4.532996694559963e-02,3.150027056755911e-07,4.531344837690610e-02,-5.416777438597933e-03,3.141465128545426e-03,3.900033498840661e-08,3.140442550483618e-03,0.000000000000000e+00,0.000000000000000e+00,0.000000000000000e+00,9.999999999998001e+01,5.357100221518333e-14,0.000000000000000e+00,3.390964296069421e-03,0.000000000000000e+00,0.000000000000000e+00,9.769402002837743e-07,1.278000000000000e-09,4.680000000000000e+03,6.000000000000000e-01,1,6.430000066757202e-01,6.430000066757202e-01,0.000000000000000e+00,0.000000000000000e+00
4.549680079221251e-02,3.943500012041386e+02,4.520246057494877e-02,3.177177362500428e-07,4.518592305485022e-02,-5.434658615720763e-03,3.134678807041315e-03,3.933648163095764e-08,3.133655055797286e-03,0.000000000000000e+00,0.000000000000000e+00,0.000000000000000e+00,9.999999999997999e+01,5.212315566987631e-14,0.000000000000000e+00,3.394006427683347e-03,0.000000000000000e+00,0.000000000000000e+00,9.769815997507530e-07,1.278000000000000e-09,4.680000000000000e+03,6.000000000000000e-01,1,6.439999938011169e-01,6.439999938011169e-01,0.000000000000000e+00,0.000000000000000e+00
4.536900243758688e-02,3.941500037791197e+02,4.507495420429791e-02,3.204327668244944e-07,4.505839773279437e-02,-5.452539792843592e-03,3.127892485537203e-03,3.967262827350866e-08,3.126867561110954e-03,0.000000000000000e+00,0.000000000000000e+00,0.000000000000000e+00,9.999999999997999e+01,5.067530912456929e-14,0.000000000000000e+00,3.397048559297272e-03,0.000000000000000e+00,0.000000000000000e+00,9.770229992177320e-07,1.278000000000000e-09,4.680000000000000e+03,6.000000000000000e-01,1,6.449999809265137e-01,6.449999809265137e-01,0.000000000000000e+00,0.000000000000000e+00
4.524119646548765e-02,3.939499944331720e+02,4.494744023357727e-02,3.231479592294625e-07,4.493086480953912e-02,-5.470422035781355e-03,3.121105759531602e-03,4.000879495221887e-08,3.120079661853205e-03,0.000000000000000e+00,0.000000000000000e+00,0.000000000000000e+00,9.999999999998001e+01,4.922737627977218e-14,0.000000000000000e+00,3.400090872238706e-03,0.000000000000000e+00,0.000000000000000e+00,9.770644011523430e-07,1.278000000000000e-09,4.680000000000000e+03,6.000000000000000e-01,1,6.460000276565552e-01,6.460000276565552e-01,0.000000000000000e+00,0.000000000000000e+00
4.511339811086201e-02,3.937499970081531e+02,4.481993386292641e-02,3.258629898039142e-07,4.480333948748325e-02,-5.488303212904185e-03,3.114319438027491e-03,4.034494159476989e-08,3.113292167166873e-03,0.000000000000000e+00,0.000000000000000e+00,0.000000000000000e+00,9.999999999997999e+01,4.777952973446517e-14,0.000000000000000e+00,3.403133003852632e-03,0.000000000000000e+00,0.000000000000000e+00,9.771058006193219e-07,1.278000000000000e-09,4.680000000000000e+03,6.000000000000000e-01,1,6.470000147819519e-01,6.470000147819519e-01,0.000000000000000e+00,0.000000000000000e+00
4.498559975623638e-02,3.935499995831343e+02,4.469242749227555e-02,3.285780203783658e-07,4.467581416542739e-02,-5.506184390027014e-03,3.107533116523380e-03,4.068108823732092e-08,3.106504672480541e-03,0.000000000000000e+00,0.000000000000000e+00,0.000000000000000e+00,9.999999999997999e+01,4.633168318915814e-14,0.000000000000000e+00,3.406175135466557e-03,0.000000000000000e+00,0.000000000000000e+00,9.771472000863006e-07,1.278000000000000e-09,4.680000000000000e+03,5.999999999999999e-01,1,6.480000019073486e-01,6.480000019073486e-01,0.000000000000000e+00,0.000000000000000e+00
4.485780140161075e-02,3.933500021581154e+02,4.456492112162469e-02,3.312930509528175e-07,4.454828884337152e-02,-5.524065567149844e-03,3.100746795019269e-03,4.101723487987195e-08,3.099717177794210e-03,0.000000000000000e+00,0.000000000000000e+00,0.000000000000000e+00,9.999999999998001e+01,4.488383664385113e-14,0.000000000000000e+00,3.409217267080483e-03,0.000000000000000e+00,0.000000000000000e+00,9.771885995532796e-07,1.278000000000000e-09,4.680000000000000e+03,6.000000000000000e-01,1,6.489999890327454e-01,6.489999890327454e-01,0.000000000000000e+00,0.000000000000000e+00
4.473000304698511e-02,3.931500047330966e+02,4.443741475097383e-02,3.340080815272692e-07,4.442076352131567e-02,-5.541946744272674e-03,3.093960473515158e-03,4.135338152242297e-08,3.092929683107878e-03,0.000000000000000e+00,0.000000000000000e+00,0.000000000000000e+00,9.999999999998001e+01,4.343599009854411e-14,0.000000000000000e+00,3.412259398694409e-03,0.000000000000000e+00,0.000000000000000e+00,9.772299990202583e-07,1.278000000000000e-09,4.680000000000000e+03,6.000000000000000e-01,1,6.499999761581421e-01,6.499999761581421e-01,0.000000000000000e+00,0.000000000000000e+00
4.460219707488587e-02,3.929499953871487e+02,4.430990078025319e-02,3.367232739322373e-07,4.429323059806042e-02,-5.559828987210436e-03,3.087173747509556e-03,4.168954820113317e-08,3.086141783850128e-03,0.000000000000000e+00,0.000000000000000e+00,0.000000000000000e+00,9.999999999997999e+01,4.198805725374700e-14,0.000000000000000e+00,3.415301711635843e-03,0.000000000000000e+00,0.000000000000000e+00,9.772714009548693e-07,1.278000000000000e-09,4.680000000000000e+03,5.999999999999999e-01,1,6.510000228881836e-01,6.510000228881836e-01,0.000000000000000e+00,0.000000000000000e+00
4.447439872026025e-02,3.927499979621300e+02,4.418239440960234e-02,3.394383045066889e-07,4.416570527600455e-02,-5.577710164333266e-03,3.080387426005446e-03,4.202569484368421e-08,3.079354289163796e-03,0.000000000000000e+00,0.000000000000000e+00,0.000000000000000e+00,9.999999999998002e+01,4.054021070843998e-14,0.000000000000000e+00,3.418343843249769e-03,0.000000000000000e+00,0.000000000000000e+00,9.773128004218482e-07,1.278000000000000e-09,4.680000000000000e+03,6.000000000000000e-01,1,6.520000100135803e-01,6.520000100135803e-01,0.000000000000000e+00,0.000000000000000e+00
4.434660036563461e-02,3.925500005371111e+02,4.405488803895148e-02,3.421533350811406e-07,4.403817995394869e-02,-5.595591341456096e-03,3.073601104501334e-03,4.236184148623523e-08,3.072566794477464e-03,0.000000000000000e+00,0.000000000000000e+00,0.000000000000000e+00,9.999999999998001e+01,3.909236416313297e-14,0.000000000000000e+00,3.421385974863694e-03,0.000000000000000e+00,0.000000000000000e+00,9.773541998888270e-07,1.278000000000000e-09,4.680000000000000e+03,6.000000000000000e-01,1,6.529999971389771e-01,6.529999971389771e-01,0.000000000000000e+00,0.000000000000000e+00
4.421880201100898e-02,3.923500031120922e+02,4.392738166830062e-02,3.448683656555922e-07,4.391065463189282e-02,-5.613472518578926e-03,3.066814782997223e-03,4.269798812878625e-08,3.065779299791133e-03,0.000000000000000e+00,0.000000000000000e+00,0.000000000000000e+00,9.999999999997999e+01,3.764451761782595e-14,0.000000000000000e+00,3.424428106477619e-03,0.000000000000000e+00,0.000000000000000e+00,9.773955993558059e-07,1.278000000000000e-09,4.680000000000000e+03,5.999999999999999e-01,1,6.539999842643738e-01,6.539999842643738e-01,0.000000000000000e+00,0.000000000000000e+00
4.409100365638335e-02,3.921500056870734e+02,4.379987529764977e-02,3.475833962300439e-07,4.378312930983696e-02,-5.631353695701756e-03,3.060028461493112e-03,4.303413477133729e-08,3.058991805104802e-03,0.000000000000000e+00,0.000000000000000e+00,0.000000000000000e+00,9.999999999998001e+01,3.619667107251893e-14,0.000000000000000e+00,3.427470238091545e-03,0.000000000000000e+00,0.000000000000000e+00,9.774369988227848e-07,1.278000000000000e-09,4.680000000000000e+03,6.000000000000000e-01,1,6.549999713897705e-01,6.549999713897705e-01,0.000000000000000e+00,0.000000000000000e+00
4.396319768428412e-02,3.919499963411256e+02,4.367236132692913e-02,3.502985886350120e-07,4.365559638658171e-02,-5.649235938639518e-03,3.053241735487510e-03,4.337030145004749e-08,3.052203905847051e-03,0.000000000000000e+00,0.000000000000000e+00,0.000000000000000e+00,9.999999999998001e+01,3.474873822772182e-14,0.000000000000000e+00,3.430512551032979e-03,0.000000000000000e+00,0.000000000000000e+00,9.774784007573959e-07,1.278000000000000e-09,4.680000000000000e+03,6.000000000000000e-01,1,6.560000181198120e-01,6.560000181198120e-01,0.000000000000000e+00,0.000000000000000e+00
4.383539932965849e-02,3.917499989161067e+02,4.354485495627827e-02,3.530136192094636e-07,4.352807106452584e-02,-5.667117115762348e-03,3.046455413983400e-03,4.370644809259851e-08,3.045416411160720e-03,0.000000000000000e+00,0.000000000000000e+00,0.000000000000000e+00,9.999999999998001e+01,3.330089168241480e-14,0.000000000000000e+00,3.433554682646904e-03,0.000000000000000e+00,0.000000000000000e+00,9.775198002243746e-07,1.278000000000000e-09,4.680000000000000e+03,6.000000000000000e-01,1,6.570000052452087e-01,6.570000052452087e-01,0.000000000000000e+00,0.000000000000000e+00
4.370760097503285e-02,3.915500014910879e+02,4.341734858562741e-02,3.557286497839153e-07,4.340054574246999e-02,-5.684998292885178e-03,3.039669092479288e-03,4.404259473514955e-08,3.038628916474388e-03,0.000000000000000e+00,0.000000000000000e+00,0.000000000000000e+00,9.999999999998002e+01,3.185304513710779e-14,0.000000000000000e+00,3.436596814260830e-03,0.000000000000000e+00,0.000000000000000e+00,9.775611996913535e-07,1.278000000000000e-09,4.680000000000000e+03,6.000000000000000e-01,1,6.579999923706055e-01,6.579999923706055e-01,0.000000000000000e+00,0.000000000000000e+00
4.357980262040721e-02,3.913500040660690e+02,4.328984221497655e-02,3.584436803583669e-07,4.327302042041412e-02,-5.702879470008007e-03,3.032882770975177e-03,4.437874137770057e-08,3.031841421788056e-03,0.000000000000000e+00,0.000000000000000e+00,0.000000000000000e+00,9.999999999998001e+01,3.040519859180076e-14,0.000000000000000e+00,3.439638945874755e-03,0.000000000000000e+00,0.000000000000000e+00,9.776025991583322e-07,1.278000000000000e-09,4.680000000000000e+03,6.000000000000000e-01,1,6.589999794960022e-01,6.589999794960022e-01,0.000000000000000e+00,0.000000000000000e+00
4.345199664830798e-02,3.911499947201212e+02,4.316232824425591e-02,3.611588727633351e-07,4.314548749715887e-02,-5.720761712945770e-03,3.026096044969576e-03,4.471490805641078e-08,3.025053522530306e-03,0.000000000000000e+00,0.000000000000000e+00,0.000000000000000e+00,9.999999999998001e+01,2.895726574700365e-14,0.000000000000000e+00,3.442681258816189e-03,0.000000000000000e+00,0.000000000000000e+00,9.776440010929435e-07,1.278000000000000e-09,4.680000000000000e+03,6.000000000000000e-01,1,6.600000262260437e-01,6.600000262260437e-01,0.000000000000000e+00,0.000000000000000e+00
4.332419829368235e-02,3.909499972951024e+02,4.303482187360505e-02,3.638739033377867e-07,4.301796217510301e-02,-5.738642890068599e-03,3.019309723465465e-03,4.505105469896180e-08,3.018266027843975e-03,0.000000000000000e+00,0.000000000000000e+00,0.000000000000000e+00,9.999999999998001e+01,2.750941920169663e-14,0.000000000000000e+00,3.445723390430115e-03,0.000000000000000e+00,0.000000000000000e+00,9.776854005599222e-07,1.278000000000000e-09,4.680000000000000e+03,6.000000000000000e-01,1,6.610000133514404e-01,6.610000133514404e-01,0.000000000000000e+00,0.000000000000000e+00
4.319639993905672e-02,3.907499998700836e+02,4.290731550295419e-02,3.665889339122384e-07,4.289043685304714e-02,-5.756524067191430e-03,3.012523401961354e-03,4.538720134151283e-08,3.011478533157643e-03,0.000000000000000e+00,0.000000000000000e+00,0.000000000000000e+00,9.999999999998001e+01,2.606157265638962e-14,0.000000000000000e+00,3.448765522044041e-03,0.000000000000000e+00,0.000000000000000e+00,9.777268000269011e-07,1.278000000000000e-09,4.680000000000000e+03,6.000000000000000e-01,1,6.620000004768372e-01,6.620000004768372e-01,0.000000000000000e+00,0.000000000000000e+00
4.306860158443108e-02,3.905500024450647e+02,4.277980913230334e-02,3.693039644866901e-07,4.276291153099128e-02,-5.774405244314260e-03,3.005737080457242e-03,4.572334798406385e-08,3.004691038471312e-03,0.000000000000000e+00,0.000000000000000e+00,0.000000000000000e+00,9.999999999998001e+01,2.461372611108260e-14,0.000000000000000e+00,3.451807653657966e-03,0.000000000000000e+00,0.000000000000000e+00,9.777681994938798e-07,1.278000000000000e-09,4.680000000000000e+03,6.000000000000000e-01,1,6.629999876022339e-01,6.629999876022339e-01,0.000000000000000e+00,0.000000000000000e+00
4.294080322980545e-02,3.903500050200459e+02,4.265230276165248e-02,3.720189950611417e-07,4.263538620893541e-02,-5.792286421437089e-03,2.998950758953131e-03,4.605949462661488e-08,2.997903543784980e-03,0.000000000000000e+00,0.000000000000000e+00,0.000000000000000e+00,9.999999999998001e+01,2.316587956577558e-14,0.000000000000000e+00,3.454849785271892e-03,0.000000000000000e+00,0.000000000000000e+00,9.778095989608586e-07,1.278000000000000e-09,4.680000000000000e+03,6.000000000000000e-01,1,6.639999747276306e-01,6.639999747276306e-01,0.000000000000000e+00,0.000000000000000e+00
4.281299725770622e-02,3.901499956740981e+02,4.252478879093184e-02,3.747341874661098e-07,4.250785328568017e-02,-5.810168664374851e-03,2.992164032947530e-03,4.639566130532508e-08,2.991115644527230e-03,0.000000000000000e+00,0.000000000000000e+00,0.000000000000000e+00,9.999999999998001e+01,2.171794672097847e-14,0.000000000000000e+00,3.457892098213326e-03,0.000000000000000e+00,0.000000000000000e+00,9.778510008954698e-07,1.278000000000000e-09,4.680000000000000e+03,6.000000000000000e-01,1,6.650000214576721e-01,6.650000214576721e-01,0.000000000000000e+00,0.000000000000000e+00
4.268519890308059e-02,3.899499982490792e+02,4.239728242028099e-02,3.774492180405614e-07,4.238032796362430e-02,-5.828049841497681e-03,2.985377711443419e-03,4.673180794787611e-08,2.984328149840898e-03,0.000000000000000e+00,0.000000000000000e+00,0.000000000000000e+00,9.999999999998001e+01,2.027010017567145e-14,0.000000000000000e+00,3.460934229827252e-03,0.000000000000000e+00,0.000000000000000e+00,9.778924003624487e-07,1.278000000000000e-09,4.680000000000000e+03,6.000000000000000e-01,1,6.660000085830688e-01,6.660000085830688e-01,0.000000000000000e+00,0.000000000000000e+00
4.255740054845496e-02,3.897500008240604e+02,4.226977604963012e-02,3.801642486150131e-07,4.225280264156844e-02,-5.845931018620511e-03,2.978591389939308e-03,4.706795459042714e-08,2.977540655154567e-03,0.000000000000000e+00,0.000000000000000e+00,0.000000000000000e+00,9.999999999998001e+01,1.882225363036444e-14,0.000000000000000e+00,3.463976361441177e-03,0.000000000000000e+00,0.000000000000000e+00,9.779337998294275e-07,1.278000000000000e-09,4.680000000000000e+03,6.000000000000000e-01,1,6.669999957084656e-01,6.669999957084656e-01,0.000000000000000e+00,0.000000000000000e+00
4.242960219382932e-02,3.895500033990415e+02,4.214226967897926e-02,3.828792791894647e-07,4.212527731951257e-02,-5.863812195743341e-03,2.971805068435197e-03,4.740410123297816e-08,2.970753160468235e-03,0.000000000000000e+00,0.000000000000000e+00,0.000000000000000e+00,9.999999999998001e+01,1.737440708505742e-14,0.000000000000000e+00,3.467018493055102e-03,0.000000000000000e+00,0.000000000000000e+00,9.779751992964062e-07,1.278000000000000e-09,4.680000000000000e+03,6.000000000000000e-01,1,6.679999828338623e-01,6.679999828338623e-01,0.000000000000000e+00,0.000000000000000e+00
4.230179622173009e-02,3.893499940530938e+02,4.201475570825863e-02,3.855944715944329e-07,4.199774439625733e-02,-5.881694438681103e-03,2.965018342429595e-03,4.774026791168837e-08,2.963965261210485e-03,0.000000000000000e+00,0.000000000000000e+00,0.000000000000000e+00,9.999999999998001e+01,1.592647424026031e-14,0.000000000000000e+00,3.470060805996537e-03,0.000000000000000e+00,0.000000000000000e+00,9.780166012310174e-07,1.278000000000000e-09,4.680000000000000e+03,6.000000000000000e-01,1,6.690000295639038e-01,6.690000295639038e-01,0.000000000000000e+00,0.000000000000000e+00
4.217399786710446e-02,3.891499966280749e+02,4.188724933760777e-02,3.883095021688845e-07,4.187021907420146e-02,-5.899575615803933e-03,2.958232020925484e-03,4.807641455423940e-08,2.957177766524153e-03,0.000000000000000e+00,0.000000000000000e+00,0.000000000000000e+00,9.999999999998001e+01,1.447862769495329e-14,0.000000000000000e+00,3.473102937610462e-03,0.000000000000000e+00,0.000000000000000e+00,9.780580006979961e-07,1.278000000000000e-09,4.680000000000000e+03,6.000000000000000e-01,1,6.700000166893005e-01,6.700000166893005e-01,0.000000000000000e+00,0.000000000000000e+00
4.204619951247882e-02,3.889499992030561e+02,4.175974296695691e-02,3.910245327433361e-07,4.174269375214560e-02,-5.917456792926763e-03,2.951445699421373e-03,4.841256119679042e-08,2.950390271837822e-03,0.000000000000000e+00,0.000000000000000e+00,0.000000000000000e+00,9.999999999998001e+01,1.303078114964628e-14,0.000000000000000e+00,3.476145069224387e-03,0.000000000000000e+00,0.000000000000000e+00,9.780994001649751e-07,1.278000000000000e-09,4.680000000000000e+03,6.000000000000000e-01,1,6.710000038146973e-01,6.710000038146973e-01,0.000000000000000e+00,0.000000000000000e+00
4.191840115785320e-02,3.887500017780372e+02,4.163223659630605e-02,3.937395633177878e-07,4.161516843008974e-02,-5.935337970049593e-03,2.944659377917262e-03,4.874870783934144e-08,2.943602777151490e-03,0.000000000000000e+00,0.000000000000000e+00,0.000000000000000e+00,9.999999999998001e+01,1.158293460433926e-14,0.000000000000000e+00,3.479187200838313e-03,0.000000000000000e+00,0.000000000000000e+00,9.781407996319538e-07,1.278000000000000e-09,4.680000000000000e+03,6.000000000000000e-01,1,6.719999909400940e-01,6.719999909400940e-01,0.000000000000000e+00,0.000000000000000e+00
4.179060280322756e-02,3.885500043530184e+02,4.150473022565519e-02,3.964545938922395e-07,4.148764310803387e-02,-5.953219147172423e-03,2.937873056413151e-03,4.908485448189247e-08,2.936815282465158e-03,0.000000000000000e+00,0.000000000000000e+00,0.000000000000000e+00,9.999999999998001e+01,1.013508805903224e-14,0.000000000000000e+00,3.482229332452239e-03,0.000000000000000e+00,0.000000000000000e+00,9.781821990989327e-07,1.278000000000000e-09,4.680000000000000e+03,6.000000000000000e-01,1,6.729999780654907e-01,6.729999780654907e-01,0.000000000000000e+00,0.000000000000000e+00
4.166279683112833e-02,3.883499950070706e+02,4.137721625493455e-02,3.991697862972076e-07,4.136011018477862e-02,-5.971101390110186e-03,2.931086330407549e-03,4.942102116060268e-08,2.930027383207408e-03,0.000000000000000e+00,0.000000000000000e+00,0.000000000000000e+00,9.999999999998001e+01,8.687155214235121e-15,0.000000000000000e+00,3.485271645393673e-03,0.000000000000000e+00,0.000000000000000e+00,9.782236010335437e-07,1.278000000000000e-09,4.680000000000000e+03,6.000000000000000e-01,1,6.740000247955322e-01,6.740000247955322e-01,0.000000000000000e+00,0.000000000000000e+00
4.153499847650269e-02,3.881499975820517e+02,4.124970988428369e-02,4.018848168716592e-07,4.123258486272276e-02,-5.988982567233014e-03,2.924300008903438e-03,4.975716780315371e-08,2.923239888521077e-03,0.000000000000000e+00,0.000000000000000e+00,0.000000000000000e+00,9.999999999998001e+01,7.239308668928108e-15,0.000000000000000e+00,3.488313777007598e-03,0.000000000000000e+00,0.000000000000000e+00,9.782650005005227e-07,1.278000000000000e-09,4.680000000000000e+03,6.000000000000000e-01,1,6.750000119209290e-01,6.750000119209290e-01,0.000000000000000e+00,0.000000000000000e+00
4.140720012187706e-02,3.879500001570329e+02,4.112220351363283e-02,4.045998474461109e-07,4.110505954066690e-02,-6.006863744355845e-03,2.917513687399327e-03,5.009331444570473e-08,2.916452393834745e-03,0.000000000000000e+00,0.000000000000000e+00,0.000000000000000e+00,9.999999999997999e+01,5.791462123621095e-15,0.000000000000000e+00,3.491355908621524e-03,0.000000000000000e+00,0.000000000000000e+00,9.783063999675014e-07,1.278000000000000e-09,4.680000000000000e+03,6.000000000000000e-01,1,6.759999990463257e-01,6.759999990463257e-01,0.000000000000000e+00,0.000000000000000e+00
4.127940176725143e-02,3.877500027320140e+02,4.099469714298198e-02,4.073148780205626e-07,4.097753421861103e-02,-6.024744921478675e-03,2.910727365895216e-03,5.042946108825576e-08,2.909664899148413e-03,0.000000000000000e+00,0.000000000000000e+00,0.000000000000000e+00,9.999999999998001e+01,4.343615578314069e-15,0.000000000000000e+00,3.494398040235449e-03,0.000000000000000e+00,0.000000000000000e+00,9.783477994344803e-07,1.278000000000000e-09,4.680000000000000e+03,6.000000000000000e-01,1,6.769999861717224e-01,6.769999861717224e-01,0.000000000000000e+00,0.000000000000000e+00
4.115160341262580e-02,3.875500053069952e+02,4.086719077233111e-02,4.100299085950142e-07,4.085000889655517e-02,-6.042626098601504e-03,2.903941044391105e-03,5.076560773080679e-08,2.902877404462082e-03,0.000000000000000e+00,0.000000000000000e+00,0.000000000000000e+00,9.999999999998001e+01,2.895769033007049e-15,0.000000000000000e+00,3.497440171849375e-03,0.000000000000000e+00,0.000000000000000e+00,9.783891989014591e-07,1.278000000000000e-09,4.680000000000000e+03,6.000000000000000e-01,1,6.779999732971191e-01,6.779999732971191e-01,0.000000000000000e+00,0.000000000000000e+00
4.102379744052656e-02,3.873499959610474e+02,4.073967680161047e-02,4.127451009999823e-07,4.072247597329992e-02,-6.060508341539267e-03,2.897154318385504e-03,5.110177440951699e-08,2.896089505204332e-03,0.000000000000000e+00,0.000000000000000e+00,0.000000000000000e+00,9.999999999998001e+01,1.447836188209942e-15,0.000000000000000e+00,3.500482484790809e-03,0.000000000000000e+00,0.000000000000000e+00,9.784306008360701e-07,1.278000000000000e-09,4.680000000000000e+03,6.000000000000000e-01,1,6.790000200271606e-01,6.790000200271606e-01,0.000000000000000e+00,0.000000000000000e+00
4.089599908590093e-02,3.871499985360285e+02,4.061217042959575e-02,4.154600880528294e-07,4.059495065035221e-02,-6.078389518704578e-03,2.890367996799592e-03,5.143791566367888e-08,2.889302010465420e-03,0.000000000000000e+00,0.000000000000000e+00,0.000000000000000e+00,9.999999999998001e+01,1.035709707137545e-20,0.000000000000000e+00,3.503524614457120e-03,0.000000000000000e+00,0.000000000000000e+00,9.784720003030490e-07,1.278000000000000e-09,4.680000000000000e+03,6.000000000000000e-01,1,6.800000071525574e-01,6.800000071525574e-01,0.000000000000000e+00,0.000000000000000e+00
4.076820073127530e-02,3.869500011110222e+02,4.048447339961959e-02,4.120911160905987e-07,4.046730065409974e-02,-6.096276634319550e-03,2.883570240196280e-03,5.102080484930756e-08,2.882507165473572e-03,0.000000000000000e+00,0.000000000000000e+00,0.000000000000000e+00,9.999999999998001e+01,1.447856902404093e-15,0.000000000000000e+00,3.506294483757436e-03,0.000000000000000e+00,0.000000000000000e+00,9.785133997700254e-07,1.278000000000000e-09,4.680000000000000e+03,6.000000000000000e-01,1,6.809999942779541e-01,6.809999942779541e-01,0.000000000000000e+00,0.000000000000000e+00
4.064040237664966e-02,3.867500036860159e+02,4.035677636964342e-02,4.087221441283680e-07,4.033965065784728e-02,-6.114163749934524e-03,2.876772483592968e-03,5.060369403493625e-08,2.875712320481724e-03,0.000000000000000e+00,0.000000000000000e+00,0.000000000000000e+00,9.999999999998001e+01,2.895703447711114e-15,0.000000000000000e+00,3.509064353057751e-03,0.000000000000000e+00,0.000000000000000e+00,9.785547992370016e-07,1.278000000000000e-09,4.680000000000000e+03,6.000000000000000e-01,1,6.819999814033508e-01,6.819999814033508e-01,0.000000000000000e+00,0.000000000000000e+00
4.051259640455043e-02,3.865499943400806e+02,4.022907172823315e-02,4.053529713571749e-07,4.021199305296418e-02,-6.132051931718395e-03,2.869974321806572e-03,5.018655835850292e-08,2.868917070480339e-03,0.000000000000000e+00,0.000000000000000e+00,0.000000000000000e+00,9.999999999998001e+01,4.343636292508230e-15,0.000000000000000e+00,3.511834387457268e-03,0.000000000000000e+00,0.000000000000000e+00,9.785962011716103e-07,1.278000000000000e-09,4.680000000000000e+03,6.000000000000000e-01,1,6.830000281333923e-01,6.830000281333923e-01,0.000000000000000e+00,0.000000000000000e+00
4.038479804992480e-02,3.863499969150743e+02,4.010137469825699e-02,4.019839993949442e-07,4.008434305671172e-02,-6.149939047333369e-03,2.863176565203260e-03,4.976944754413161e-08,2.862122225488491e-03,0.000000000000000e+00,0.000000000000000e+00,0.000000000000000e+00,9.999999999998001e+01,5.791482837815252e-15,0.000000000000000e+00,3.514604256757584e-03,0.000000000000000e+00,0.000000000000000e+00,9.786376006385867e-07,1.278000000000000e-09,4.680000000000001e+03,6.000000000000000e-01,1,6.840000152587891e-01,6.840000152587891e-01,0.000000000000000e+00,0.000000000000000e+00
4.025699969529917e-02,3.861499994900678e+02,3.997367766828082e-02,3.986150274327134e-07,3.995669306045925e-02,-6.167826162948342e-03,2.856378808599948e-03,4.935233672976029e-08,2.855327380496643e-03,0.000000000000000e+00,0.000000000000000e+00,0.000000000000000e+00,9.999999999998001e+01,7.239329383122274e-15,0.000000000000000e+00,3.517374126057899e-03,0.000000000000000e+00,0.000000000000000e+00,9.786790001055629e-07,1.278000000000000e-09,4.680000000000000e+03,6.000000000000000e-01,1,6.850000023841858e-01,6.850000023841858e-01,0.000000000000000e+00,0.000000000000000e+00
4.012920134067353e-02,3.859500020650615e+02,3.984598063830466e-02,3.952460554704827e-07,3.982904306420679e-02,-6.185713278563315e-03,2.849581051996636e-03,4.893522591538899e-08,2.848532535504795e-03,0.000000000000000e+00,0.000000000000000e+00,0.000000000000000e+00,9.999999999998001e+01,8.687175928429295e-15,0.000000000000000e+00,3.520143995358215e-03,0.000000000000000e+00,0.000000000000000e+00,9.787203995725393e-07,1.278000000000000e-09,4.680000000000000e+03,6.000000000000000e-01,1,6.859999895095825e-01,6.859999895095825e-01,0.000000000000000e+00,0.000000000000000e+00
4.000140298604789e-02,3.857500046400552e+02,3.971828360832850e-02,3.918770835082521e-07,3.970139306795432e-02,-6.203600394178289e-03,2.842783295393325e-03,4.851811510101767e-08,2.841737690512946e-03,0.000000000000000e+00,0.000000000000000e+00,0.000000000000000e+00,9.999999999998001e+01,1.013502247373632e-14,0.000000000000000e+00,3.522913864658530e-03,0.000000000000000e+00,0.000000000000000e+00,9.787617990395156e-07,1.278000000000000e-09,4.680000000000000e+03,6.000000000000000e-01,1,6.869999766349792e-01,6.869999766349792e-01,0.000000000000000e+00,0.000000000000000e+00
3.987359701394867e-02,3.855499952941199e+02,3.959057896691823e-02,3.885079107370589e-07,3.957373546307123e-02,-6.221488575962161e-03,2.835985133606929e-03,4.810097942458435e-08,2.834942440511562e-03,0.000000000000000e+00,0.000000000000000e+00,0.000000000000000e+00,9.999999999998001e+01,1.158295531853343e-14,0.000000000000000e+00,3.525683899058048e-03,0.000000000000000e+00,0.000000000000000e+00,9.788032009741241e-07,1.278000000000000e-09,4.680000000000000e+03,6.000000000000000e-01,1,6.880000233650208e-01,6.880000233650208e-01,0.000000000000000e+00,0.000000000000000e+00
3.974579865932304e-02,3.853499978691136e+02,3.946288193694206e-02,3.851389387748282e-07,3.944608546681876e-02,-6.239375691577134e-03,2.829187377003617e-03,4.768386861021303e-08,2.828147595519714e-03,0.000000000000000e+00,0.000000000000000e+00,0.000000000000000e+00,9.999999999998002e+01,1.303080186384045e-14,0.000000000000000e+00,3.528453768358363e-03,0.000000000000000e+00,0.000000000000000e+00,9.788446004411005e-07,1.278000000000000e-09,4.680000000000000e+03,6.000000000000000e-01,1,6.890000104904175e-01,6.890000104904175e-01,0.000000000000000e+00,0.000000000000000e+00
3.961800030469740e-02,3.851500004441071e+02,3.933518490696590e-02,3.817699668125976e-07,3.931843547056630e-02,-6.257262807192107e-03,2.822389620400306e-03,4.726675779584172e-08,2.821352750527866e-03,0.000000000000000e+00,0.000000000000000e+00,0.000000000000000e+00,9.999999999998001e+01,1.447864840914748e-14,0.000000000000000e+00,3.531223637658678e-03,0.000000000000000e+00,0.000000000000000e+00,9.788859999080769e-07,1.278000000000000e-09,4.680000000000000e+03,6.000000000000000e-01,1,6.899999976158142e-01,6.899999976158142e-01,0.000000000000000e+00,0.000000000000000e+00
3.949020195007177e-02,3.849500030191008e+02,3.920748787698973e-02,3.784009948503668e-07,3.919078547431384e-02,-6.275149922807080e-03,2.815591863796993e-03,4.684964698147041e-08,2.814557905536017e-03,0.000000000000000e+00,0.000000000000000e+00,0.000000000000000e+00,9.999999999998001e+01,1.592649495445450e-14,0.000000000000000e+00,3.533993506958994e-03,0.000000000000000e+00,0.000000000000000e+00,9.789273993750531e-07,1.278000000000000e-09,4.680000000000000e+03,6.000000000000000e-01,1,6.909999847412109e-01,6.909999847412109e-01,0.000000000000000e+00,0.000000000000000e+00
3.936240359544614e-02,3.847500055940945e+02,3.907979084701357e-02,3.750320228881362e-07,3.906313547806138e-02,-6.293037038422053e-03,2.808794107193682e-03,4.643253616709910e-08,2.807763060544170e-03,0.000000000000000e+00,0.000000000000000e+00,0.000000000000000e+00,9.999999999998001e+01,1.737434149976152e-14,0.000000000000000e+00,3.536763376259310e-03,0.000000000000000e+00,0.000000000000000e+00,9.789687988420295e-07,1.278000000000000e-09,4.680000000000000e+03,6.000000000000001e-01,1,6.919999718666077e-01,6.919999718666077e-01,0.000000000000000e+00,0.000000000000000e+00
3.923459762334690e-02,3.845499962481592e+02,3.895208620560330e-02,3.716628501169431e-07,3.893547787317827e-02,-6.310925220205925e-03,2.801995945407286e-03,4.601540049066577e-08,2.800967810542785e-03,0.000000000000000e+00,0.000000000000000e+00,0.000000000000000e+00,9.999999999998002e+01,1.882227434455863e-14,0.000000000000000e+00,3.539533410658826e-03,0.000000000000000e+00,0.000000000000000e+00,9.790102007766382e-07,1.278000000000000e-09,4.680000000000000e+03,6.000000000000000e-01,1,6.930000185966492e-01,6.930000185966492e-01,0.000000000000000e+00,0.000000000000000e+00
3.910679926872127e-02,3.843499988231529e+02,3.882438917562714e-02,3.682938781547123e-07,3.880782787692581e-02,-6.328812335820898e-03,2.795198188803974e-03,4.559828967629446e-08,2.794172965550937e-03,0.000000000000000e+00,0.000000000000000e+00,0.000000000000000e+00,9.999999999998002e+01,2.027012088986565e-14,0.000000000000000e+00,3.542303279959142e-03,0.000000000000000e+00,0.000000000000000e+00,9.790516002436144e-07,1.278000000000000e-09,4.680000000000000e+03,6.000000000000000e-01,1,6.940000057220459e-01,6.940000057220459e-01,0.000000000000000e+00,0.000000000000000e+00
3.897900091409563e-02,3.841500013981465e+02,3.869669214565097e-02,3.649249061924816e-07,3.868017788067334e-02,-6.346699451435871e-03,2.788400432200662e-03,4.518117886192314e-08,2.787378120559089e-03,0.000000000000000e+00,0.000000000000000e+00,0.000000000000000e+00,9.999999999998001e+01,2.171796743517267e-14,0.000000000000000e+00,3.545073149259458e-03,0.000000000000000e+00,0.000000000000000e+00,9.790929997105908e-07,1.278000000000000e-09,4.680000000000000e+03,6.000000000000000e-01,1,6.949999928474426e-01,6.949999928474426e-01,0.000000000000000e+00,0.000000000000000e+00
3.885120255947000e-02,3.839500039731402e+02,3.856899511567480e-02,3.615559342302509e-07,3.855252788442088e-02,-6.364586567050844e-03,2.781602675597350e-03,4.476406804755183e-08,2.780583275567240e-03,0.000000000000000e+00,0.000000000000000e+00,0.000000000000000e+00,9.999999999998001e+01,2.316581398047970e-14,0.000000000000000e+00,3.547843018559773e-03,0.000000000000000e+00,0.000000000000000e+00,9.791343991775669e-07,1.278000000000000e-09,4.680000000000000e+03,6.000000000000000e-01,1,6.959999799728394e-01,6.959999799728394e-01,0.000000000000000e+00,0.000000000000000e+00
3.872339658737077e-02,3.837499946272048e+02,3.844129047426454e-02,3.581867614590579e-07,3.842487027953778e-02,-6.382474748834717e-03,2.774804513810954e-03,4.434693237111851e-08,2.773788025565856e-03,0.000000000000000e+00,0.000000000000000e+00,0.000000000000000e+00,9.999999999998002e+01,2.461374682527681e-14,0.000000000000000e+00,3.550613052959291e-03,0.000000000000000e+00,0.000000000000000e+00,9.791758011121756e-07,1.278000000000000e-09,4.680000000000000e+03,6.000000000000001e-01,1,6.970000267028809e-01,6.970000267028809e-01,0.000000000000000e+00,0.000000000000000e+00
3.859559823274514e-02,3.835499972021985e+02,3.831359344428838e-02,3.548177894968271e-07,3.829722028328532e-02,-6.400361864449689e-03,2.768006757207642e-03,4.392982155674720e-08,2.766993180574008e-03,0.000000000000000e+00,0.000000000000000e+00,0.000000000000000e+00,9.999999999998001e+01,2.606159337058383e-14,0.000000000000000e+00,3.553382922259606e-03,0.000000000000000e+00,0.000000000000000e+00,9.792172005791520e-07,1.278000000000000e-09,4.680000000000000e+03,6.000000000000000e-01,1,6.980000138282776e-01,6.980000138282776e-01,0.000000000000000e+00,0.000000000000000e+00
3.846779987811950e-02,3.833499997771921e+02,3.818589641431221e-02,3.514488175345964e-07,3.816957028703286e-02,-6.418248980064663e-03,2.761209000604331e-03,4.351271074237588e-08,2.760198335582159e-03,0.000000000000000e+00,0.000000000000000e+00,0.000000000000000e+00,9.999999999997999e+01,2.750943991589086e-14,0.000000000000000e+00,3.556152791559921e-03,0.000000000000000e+00,0.000000000000000e+00,9.792586000461284e-07,1.278000000000000e-09,4.680000000000000e+03,5.999999999999999e-01,1,6.990000009536743e-01,6.990000009536743e-01,0.000000000000000e+00,0.000000000000000e+00
3.834000152349387e-02,3.831500023521858e+02,3.805819938433605e-02,3.480798455723657e-07,3.804192029078039e-02,-6.436136095679636e-03,2.754411244001019e-03,4.309559992800456e-08,2.753403490590311e-03,0.000000000000000e+00,0.000000000000000e+00,0.000000000000000e+00,9.999999999998001e+01,2.895728646119788e-14,0.000000000000000e+00,3.558922660860237e-03,0.000000000000000e+00,0.000000000000000e+00,9.792999995131048e-07,1.278000000000000e-09,4.680000000000000e+03,6.000000000000000e-01,1,6.999999880790710e-01,6.999999880790710e-01,0.000000000000000e+00,0.000000000000000e+00
3.821220316886824e-02,3.829500049271795e+02,3.793050235435988e-02,3.447108736101350e-07,3.791427029452793e-02,-6.454023211294609e-03,2.747613487397707e-03,4.267848911363325e-08,2.746608645598463e-03,0.000000000000000e+00,0.000000000000000e+00,0.000000000000000e+00,9.999999999998001e+01,3.040513300650491e-14,0.000000000000000e+00,3.561692530160553e-03,0.000000000000000e+00,0.000000000000000e+00,9.793413989800810e-07,1.278000000000000e-09,4.680000000000000e+03,6.000000000000000e-01,1,7.009999752044678e-01,7.009999752044678e-01,0.000000000000000e+00,0.000000000000000e+00
3.808439719676900e-02,3.827499955812441e+02,3.780279771294962e-02,3.413417008389419e-07,3.778661268964482e-02,-6.471911393078482e-03,2.740815325611311e-03,4.226135343719993e-08,2.739813395597078e-03,0.000000000000000e+00,0.000000000000000e+00,0.000000000000000e+00,9.999999999998001e+01,3.185306585130201e-14,0.000000000000000e+00,3.564462564560070e-03,0.000000000000000e+00,0.000000000000000e+00,9.793828009146895e-07,1.278000000000000e-09,4.680000000000000e+03,6.000000000000000e-01,1,7.020000219345093e-01,7.020000219345093e-01,0.000000000000000e+00,0.000000000000000e+00
3.795659884214337e-02,3.825499981562378e+02,3.767510068297344e-02,3.379727288767112e-07,3.765896269339236e-02,-6.489798508693453e-03,2.734017569007999e-03,4.184424262282861e-08,2.733018550605230e-03,0.000000000000000e+00,0.000000000000000e+00,0.000000000000000e+00,9.999999999998001e+01,3.330091239660904e-14,0.000000000000000e+00,3.567232433860385e-03,0.000000000000000e+00,0.000000000000000e+00,9.794242003816659e-07,1.278000000000000e-09,4.680000000000000e+03,6.000000000000000e-01,1,7.030000090599060e-01,7.030000090599060e-01,0.000000000000000e+00,0.000000000000000e+00
3.782880048751774e-02,3.823500007312315e+02,3.754740365299729e-02,3.346037569144805e-07,3.753131269713990e-02,-6.507685624308427e-03,2.727219812404687e-03,4.142713180845730e-08,2.726223705613382e-03,0.000000000000000e+00,0.000000000000000e+00,0.000000000000000e+00,9.999999999998001e+01,3.474875894191606e-14,0.000000000000000e+00,3.570002303160701e-03,0.000000000000000e+00,0.000000000000000e+00,9.794655998486422e-07,1.278000000000000e-09,4.680000000000000e+03,6.000000000000000e-01,1,7.039999961853027e-01,7.039999961853027e-01,0.000000000000000e+00,0.000000000000000e+00
3.770100213289210e-02,3.821500033062251e+02,3.741970662302112e-02,3.312347849522498e-07,3.740366270088744e-02,-6.525572739923400e-03,2.720422055801375e-03,4.101002099408599e-08,2.719428860621534e-03,0.000000000000000e+00,0.000000000000000e+00,0.000000000000000e+00,9.999999999998001e+01,3.619660548722308e-14,0.000000000000000e+00,3.572772172461016e-03,0.000000000000000e+00,0.000000000000000e+00,9.795069993156186e-07,1.278000000000000e-09,4.680000000000000e+03,6.000000000000000e-01,1,7.049999833106995e-01,7.049999833106995e-01,0.000000000000000e+00,0.000000000000000e+00
3.757320377826647e-02,3.819500058812188e+02,3.729200959304496e-02,3.278658129900191e-07,3.727601270463497e-02,-6.543459855538373e-03,2.713624299198063e-03,4.059291017971468e-08,2.712634015629686e-03,0.000000000000000e+00,0.000000000000000e+00,0.000000000000000e+00,9.999999999997999e+01,3.764445203253010e-14,0.000000000000000e+00,3.575542041761332e-03,0.000000000000000e+00,0.000000000000000e+00,9.795483987825948e-07,1.278000000000000e-09,4.680000000000000e+03,6.000000000000000e-01,1,7.059999704360962e-01,7.059999704360962e-01,0.000000000000000e+00,0.000000000000000e+00
3.744539780616724e-02,3.817499965352835e+02,3.716430495163468e-02,3.244966402188260e-07,3.714835509975187e-02,-6.561348037322246e-03,2.706826137411667e-03,4.017577450328135e-08,2.705838765628302e-03,0.000000000000000e+00,0.000000000000000e+00,0.000000000000000e+00,9.999999999997999e+01,3.909238487732722e-14,0.000000000000000e+00,3.578312076160849e-03,0.000000000000000e+00,0.000000000000000e+00,9.795898007172035e-07,1.278000000000000e-09,4.680000000000000e+03,6.000000000000000e-01,1,7.070000171661377e-01,7.070000171661377e-01,0.000000000000000e+00,0.000000000000000e+00
3.731759945154160e-02,3.815499991102771e+02,3.703660792165853e-02,3.211276682565953e-07,3.702070510349940e-02,-6.579235152937219e-03,2.700028380808355e-03,3.975866368891004e-08,2.699043920636453e-03,0.000000000000000e+00,0.000000000000000e+00,0.000000000000000e+00,9.999999999998001e+01,4.054023142263424e-14,0.000000000000000e+00,3.581081945461165e-03,0.000000000000000e+00,0.000000000000000e+00,9.796312001841799e-07,1.278000000000000e-09,4.680000000000000e+03,6.000000000000000e-01,1,7.080000042915344e-01,7.080000042915344e-01,0.000000000000000e+00,0.000000000000000e+00
3.718980109691597e-02,3.813500016852708e+02,3.690891089168236e-02,3.177586962943646e-07,3.689305510724695e-02,-6.597122268552192e-03,2.693230624205044e-03,3.934155287453873e-08,2.692249075644605e-03,0.000000000000000e+00,0.000000000000000e+00,0.000000000000000e+00,9.999999999998001e+01,4.198807796794126e-14,0.000000000000000e+00,3.583851814761480e-03,0.000000000000000e+00,0.000000000000000e+00,9.796725996511561e-07,1.278000000000000e-09,4.680000000000000e+03,6.000000000000000e-01,1,7.089999914169312e-01,7.089999914169312e-01,0.000000000000000e+00,0.000000000000000e+00
3.706200274229034e-02,3.811500042602644e+02,3.678121386170620e-02,3.143897243321339e-07,3.676540511099449e-02,-6.615009384167165e-03,2.686432867601732e-03,3.892444206016741e-08,2.685454230652757e-03,0.000000000000000e+00,0.000000000000000e+00,0.000000000000000e+00,9.999999999998001e+01,4.343592451324828e-14,0.000000000000000e+00,3.586621684061796e-03,0.000000000000000e+00,0.000000000000000e+00,9.797139991181325e-07,1.278000000000000e-09,4.680000000000000e+03,6.000000000000000e-01,1,7.099999785423279e-01,7.099999785423279e-01,0.000000000000000e+00,0.000000000000000e+00
3.693419677019111e-02,3.809499949143291e+02,3.665350922029593e-02,3.110205515609408e-07,3.663774750611138e-02,-6.632897565951036e-03,2.679634705815336e-03,3.850730638373409e-08,2.678658980651372e-03,0.000000000000000e+00,0.000000000000000e+00,0.000000000000000e+00,9.999999999998001e+01,4.488385735804540e-14,0.000000000000000e+00,3.589391718461313e-03,0.000000000000000e+00,0.000000000000000e+00,9.797554010527412e-07,1.278000000000000e-09,4.680000000000000e+03,6.000000000000000e-01,1,7.110000252723694e-01,7.110000252723694e-01,0.000000000000000e+00,0.000000000000000e+00
3.680639841556547e-02,3.807499974893228e+02,3.652581219031976e-02,3.076515795987101e-07,3.651009750985892e-02,-6.650784681566010e-03,2.672836949212024e-03,3.809019556936277e-08,2.671864135659524e-03,0.000000000000000e+00,0.000000000000000e+00,0.000000000000000e+00,9.999999999998001e+01,4.633170390335242e-14,0.000000000000000e+00,3.592161587761628e-03,0.000000000000000e+00,0.000000000000000e+00,9.797968005197174e-07,1.278000000000000e-09,4.680000000000000e+03,6.000000000000000e-01,1,7.120000123977661e-01,7.120000123977661e-01,0.000000000000000e+00,0.000000000000000e+00
3.667860006093984e-02,3.805500000643164e+02,3.639811516034359e-02,3.042826076364794e-07,3.638244751360645e-02,-6.668671797180983e-03,2.666039192608712e-03,3.767308475499146e-08,2.665069290667676e-03,0.000000000000000e+00,0.000000000000000e+00,0.000000000000000e+00,9.999999999998001e+01,4.777955044865944e-14,0.000000000000000e+00,3.594931457061944e-03,0.000000000000000e+00,0.000000000000000e+00,9.798381999866937e-07,1.278000000000000e-09,4.680000000000000e+03,6.000000000000000e-01,1,7.129999995231628e-01,7.129999995231628e-01,0.000000000000000e+00,0.000000000000000e+00
3.655080170631421e-02,3.803500026393100e+02,3.627041813036743e-02,3.009136356742487e-07,3.625479751735399e-02,-6.686558912795956e-03,2.659241436005400e-03,3.725597394062014e-08,2.658274445675828e-03,0.000000000000000e+00,0.000000000000000e+00,0.000000000000000e+00,9.999999999998001e+01,4.922739699396646e-14,0.000000000000000e+00,3.597701326362260e-03,0.000000000000000e+00,0.000000000000000e+00,9.798795994536701e-07,1.278000000000000e-09,4.680000000000000e+03,6.000000000000000e-01,1,7.139999866485596e-01,7.139999866485596e-01,0.000000000000000e+00,0.000000000000000e+00
3.642300335168858e-02,3.801500052143037e+02,3.614272110039127e-02,2.975446637120180e-07,3.612714752110153e-02,-6.704446028410929e-03,2.652443679402088e-03,3.683886312624883e-08,2.651479600683980e-03,0.000000000000000e+00,0.000000000000000e+00,0.000000000000000e+00,9.999999999998001e+01,5.067524353927348e-14,0.000000000000000e+00,3.600471195662575e-03,0.000000000000000e+00,0.000000000000000e+00,9.799209989206463e-07,1.278000000000000e-09,4.680000000000000e+03,6.000000000000000e-01,1,7.149999737739563e-01,7.149999737739563e-01,0.000000000000000e+00,0.000000000000000e+00
3.629519737958934e-02,3.799499958683684e+02,3.601501645898100e-02,2.941754909408249e-07,3.599948991621843e-02,-6.722334210194802e-03,2.645645517615692e-03,3.642172744981551e-08,2.644684350682595e-03,0.000000000000000e+00,0.000000000000000e+00,0.000000000000000e+00,9.999999999998001e+01,5.212317638407059e-14,0.000000000000000e+00,3.603241230062092e-03,0.000000000000000e+00,0.000000000000000e+00,9.799624008552550e-07,1.278000000000000e-09,4.680000000000000e+03,6.000000000000000e-01,1,7.160000205039978e-01,7.160000205039978e-01,0.000000000000000e+00,0.000000000000000e+00
3.616739902496371e-02,3.797499984433621e+02,3.588731942900484e-02,2.908065189785942e-07,3.587183991996597e-02,-6.740221325809774e-03,2.638847761012381e-03,3.600461663544420e-08,2.637889505690747e-03,0.000000000000000e+00,0.000000000000000e+00,0.000000000000000e+00,9.999999999998001e+01,5.357102292937762e-14,0.000000000000000e+00,3.606011099362407e-03,0.000000000000000e+00,0.000000000000000e+00,9.800038003222314e-07,1.278000000000000e-09,4.680000000000000e+03,6.000000000000000e-01,1,7.170000076293945e-01,7.170000076293945e-01,0.000000000000000e+00,0.000000000000000e+00
3.603960067033807e-02,3.795500010183557e+02,3.575962239902867e-02,2.874375470163634e-07,3.574418992371350e-02,-6.758108441424748e-03,2.632050004409069e-03,3.558750582107288e-08,2.631094660698899e-03,0.000000000000000e+00,0.000000000000000e+00,0.000000000000000e+00,9.999999999997999e+01,5.501886947468464e-14,0.000000000000000e+00,3.608780968662723e-03,0.000000000000000e+00,0.000000000000000e+00,9.800451997892076e-07,1.278000000000000e-09,4.680000000000000e+03,6.000000000000000e-01,1,7.179999947547913e-01,7.179999947547913e-01,0.000000000000000e+00,0.000000000000000e+00
3.591180231571245e-02,3.793500035933494e+02,3.563192536905251e-02,2.840685750541328e-07,3.561653992746103e-02,-6.775995557039721e-03,2.625252247805757e-03,3.517039500670157e-08,2.624299815707051e-03,0.000000000000000e+00,0.000000000000000e+00,0.000000000000000e+00,9.999999999998001e+01,5.646671601999166e-14,0.000000000000000e+00,3.611550837963039e-03,0.000000000000000e+00,0.000000000000000e+00,9.800865992561840e-07,1.278000000000000e-09,4.680000000000000e+03,6.000000000000000e-01,1,7.189999818801880e-01,7.189999818801880e-01,0.000000000000000e+00,0.000000000000000e+00
3.578399634361321e-02,3.791499942474142e+02,3.550422070314401e-02,2.806994472349677e-07,3.548888229865311e-02,-6.793883741906833e-03,2.618454084693671e-03,3.475326489575743e-08,2.617504564415473e-03,0.000000000000000e+00,0.000000000000000e+00,0.000000000000000e+00,9.999999999998001e+01,5.791460744002000e-14,0.000000000000000e+00,3.614320864571812e-03,0.000000000000000e+00,0.000000000000000e+00,9.801280011907927e-07,1.278000000000000e-09,4.680000000000000e+03,6.000000000000000e-01,1,7.200000286102295e-01,7.200000286102295e-01,0.000000000000000e+00,0.000000000000000e+00
3.565619798898757e-02,3.789499968224202e+02,3.537566743002078e-02,2.789016038615704e-07,3.536039610037706e-02,-6.811878620565582e-03,2.611609993607780e-03,3.453067476381302e-08,2.610664625582023e-03,0.000000000000000e+00,0.000000000000000e+00,0.000000000000000e+00,9.999999999998001e+01,5.791460744002000e-14,0.000000000000000e+00,3.616818437802352e-03,0.000000000000000e+00,0.000000000000000e+00,9.801694006577663e-07,1.278000000000000e-09,4.680000000000000e+03,6.000000000000000e-01,1,7.210000157356262e-01,7.210000157356262e-01,0.000000000000000e+00,0.000000000000000e+00
3.552839963436194e-02,3.787499993974264e+02,3.524711415689756e-02,2.771037604881730e-07,3.523190990210100e-02,-6.829873499224331e-03,2.604765902521889e-03,3.430808463186862e-08,2.603824686748572e-03,0.000000000000000e+00,0.000000000000000e+00,0.000000000000000e+00,9.999999999998002e+01,5.791460744002000e-14,0.000000000000000e+00,3.619316011032893e-03,0.000000000000000e+00,0.000000000000000e+00,9.802108001247402e-07,1.278000000000000e-09,4.680000000000000e+03,6.000000000000000e-01,1,7.220000028610229e-01,7.220000028610229e-01,0.000000000000000e+00,0.000000000000000e+00
3.540060127973631e-02,3.785500019724326e+02,3.511856088377432e-02,2.753059171147757e-07,3.510342370382495e-02,-6.847868377883080e-03,2.597921811435998e-03,3.408549449992421e-08,2.596984747915122e-03,0.000000000000000e+00,0.000000000000000e+00,0.000000000000000e+00,9.999999999998001e+01,5.791460744002000e-14,0.000000000000000e+00,3.621813584263433e-03,0.000000000000000e+00,0.000000000000000e+00,9.802521995917140e-07,1.278000000000000e-09,4.680000000000000e+03,6.000000000000000e-01,1,7.229999899864197e-01,7.229999899864197e-01,0.000000000000000e+00,0.000000000000000e+00
3.527280292511067e-02,3.783500045474387e+02,3.499000761065110e-02,2.735080737413784e-07,3.497493750554890e-02,-6.865863256541827e-03,2.591077720350107e-03,3.386290436797980e-08,2.590144809081672e-03,0.000000000000000e+00,0.000000000000000e+00,0.000000000000000e+00,9.999999999998001e+01,5.791460744002000e-14,0.000000000000000e+00,3.624311157493973e-03,0.000000000000000e+00,0.000000000000000e+00,9.802935990586879e-07,1.278000000000000e-09,4.680000000000000e+03,6.000000000000000e-01,1,7.239999771118164e-01,7.239999771118164e-01,0.000000000000000e+00,0.000000000000000e+00
3.514499695301145e-02,3.781499952015159e+02,3.486144667505704e-02,2.717101232067858e-07,3.484644364880004e-02,-6.883859207792736e-03,2.584233221319347e-03,3.364030096845884e-08,2.583304462550848e-03,0.000000000000000e+00,0.000000000000000e+00,0.000000000000000e+00,9.999999999998001e+01,5.791460744002000e-14,0.000000000000000e+00,3.626808879593395e-03,0.000000000000000e+00,0.000000000000000e+00,9.803350009932940e-07,1.278000000000000e-09,4.680000000000000e+03,6.000000000000000e-01,1,7.250000238418579e-01,7.250000238418579e-01,0.000000000000000e+00,0.000000000000000e+00
3.501719859838581e-02,3.779499977765221e+02,3.473289340193381e-02,2.699122798333885e-07,3.471795745052399e-02,-6.901854086451484e-03,2.577389130233456e-03,3.341771083651443e-08,2.576464523717398e-03,0.000000000000000e+00,0.000000000000000e+00,0.000000000000000e+00,9.999999999997999e+01,5.791460744002000e-14,0.000000000000000e+00,3.629306452823935e-03,0.000000000000000e+00,0.000000000000000e+00,9.803764004602679e-07,1.278000000000000e-09,4.680000000000000e+03,6.000000000000000e-01,1,7.260000109672546e-01,7.260000109672546e-01,0.000000000000000e+00,0.000000000000000e+00
3.488940024376018e-02,3.777500003515282e+02,3.460434012881058e-02,2.681144364599912e-07,3.458947125224793e-02,-6.919848965110232e-03,2.570545039147565e-03,3.319512070457002e-08,2.569624584883948e-03,0.000000000000000e+00,0.000000000000000e+00,0.000000000000000e+00,9.999999999997999e+01,5.791460744002000e-14,0.000000000000000e+00,3.631804026054475e-03,0.000000000000000e+00,0.000000000000000e+00,9.804177999272417e-07,1.278000000000000e-09,4.680000000000000e+03,6.000000000000000e-01,1,7.269999980926514e-01,7.269999980926514e-01,0.000000000000000e+00,0.000000000000000e+00
3.476160188913455e-02,3.775500029265344e+02,3.447578685568735e-02,2.663165930865939e-07,3.446098505397189e-02,-6.937843843768982e-03,2.563700948061674e-03,3.297253057262562e-08,2.562784646050498e-03,0.000000000000000e+00,0.000000000000000e+00,0.000000000000000e+00,9.999999999998001e+01,5.791460744002000e-14,0.000000000000000e+00,3.634301599285016e-03,0.000000000000000e+00,0.000000000000000e+00,9.804591993942154e-07,1.278000000000000e-09,4.680000000000000e+03,6.000000000000000e-01,1,7.279999852180481e-01,7.279999852180481e-01,0.000000000000000e+00,0.000000000000000e+00
3.463380353450892e-02,3.773500055015405e+02,3.434723358256412e-02,2.645187497131965e-07,3.433249885569583e-02,-6.955838722427730e-03,2.556856856975783e-03,3.274994044068122e-08,2.555944707217047e-03,0.000000000000000e+00,0.000000000000000e+00,0.000000000000000e+00,9.999999999998001e+01,5.791460744002000e-14,0.000000000000000e+00,3.636799172515556e-03,0.000000000000000e+00,0.000000000000000e+00,9.805005988611892e-07,1.278000000000000e-09,4.680000000000000e+03,6.000000000000000e-01,1,7.289999723434448e-01,7.289999723434448e-01,0.000000000000000e+00,0.000000000000000e+00
3.450599756240968e-02,3.771499961556177e+02,3.421867264697006e-02,2.627207991786039e-07,3.420400499894698e-02,-6.973834673678637e-03,2.550012357945022e-03,3.252733704116025e-08,2.549104360686223e-03,0.000000000000000e+00,0.000000000000000e+00,0.000000000000000e+00,9.999999999998001e+01,5.791460744002000e-14,0.000000000000000e+00,3.639296894614978e-03,0.000000000000000e+00,0.000000000000000e+00,9.805420007957954e-07,1.278000000000000e-09,4.680000000000000e+03,6.000000000000000e-01,1,7.300000190734863e-01,7.300000190734863e-01,0.000000000000000e+00,0.000000000000000e+00
3.437819920778405e-02,3.769499987306239e+02,3.409011937384683e-02,2.609229558052066e-07,3.407551880067092e-02,-6.991829552337387e-03,2.543168266859131e-03,3.230474690921584e-08,2.542264421852773e-03,0.000000000000000e+00,0.000000000000000e+00,0.000000000000000e+00,9.999999999998001e+01,5.791460744002000e-14,0.000000000000000e+00,3.641794467845519e-03,0.000000000000000e+00,0.000000000000000e+00,9.805834002627692e-07,1.278000000000000e-09,4.680000000000000e+03,6.000000000000001e-01,1,7.310000061988831e-01,7.310000061988831e-01,0.000000000000000e+00,0.000000000000000e+00
3.425040085315842e-02,3.767500013056301e+02,3.396156610072360e-02,2.591251124318093e-07,3.394703260239487e-02,-7.009824430996135e-03,2.536324175773240e-03,3.208215677727144e-08,2.535424483019323e-03,0.000000000000000e+00,0.000000000000000e+00,0.000000000000000e+00,9.999999999998001e+01,5.791460744002000e-14,0.000000000000000e+00,3.644292041076059e-03,0.000000000000000e+00,0.000000000000000e+00,9.806247997297431e-07,1.278000000000000e-09,4.680000000000000e+03,6.000000000000000e-01,1,7.319999933242798e-01,7.319999933242798e-01,0.000000000000000e+00,0.000000000000000e+00
3.412260249853279e-02,3.765500038806362e+02,3.383301282760037e-02,2.573272690584120e-07,3.381854640411881e-02,-7.027819309654884e-03,2.529480084687349e-03,3.185956664532703e-08,2.528584544185873e-03,0.000000000000000e+00,0.000000000000000e+00,0.000000000000000e+00,9.999999999998001e+01,5.791460744002000e-14,0.000000000000000e+00,3.646789614306599e-03,0.000000000000000e+00,0.000000000000000e+00,9.806661991967167e-07,1.278000000000000e-09,4.680000000000000e+03,6.000000000000000e-01,1,7.329999804496765e-01,7.329999804496765e-01,0.000000000000000e+00,0.000000000000000e+00
3.399479652643356e-02,3.763499945347135e+02,3.370445189200631e-02,2.555293185238194e-07,3.369005254736996e-02,-7.045815260905791e-03,2.522635585656588e-03,3.163696324580607e-08,2.521744197655049e-03,0.000000000000000e+00,0.000000000000000e+00,0.000000000000000e+00,9.999999999998002e+01,5.791460744002000e-14,0.000000000000000e+00,3.649287336406021e-03,0.000000000000000e+00,0.000000000000000e+00,9.807076011313229e-07,1.278000000000000e-09,4.680000000000000e+03,6.000000000000001e-01,1,7.340000271797180e-01,7.340000271797180e-01,0.000000000000000e+00,0.000000000000000e+00
3.386699817180792e-02,3.761499971097195e+02,3.357589861888308e-02,2.537314751504220e-07,3.356156634909390e-02,-7.063810139564539e-03,2.515791494570697e-03,3.141437311386166e-08,2.514904258821599e-03,0.000000000000000e+00,0.000000000000000e+00,0.000000000000000e+00,9.999999999997999e+01,5.791460744002000e-14,0.000000000000000e+00,3.651784909636561e-03,0.000000000000000e+00,0.000000000000000e+00,9.807490005982967e-07,1.278000000000000e-09,4.680000000000000e+03,6.000000000000000e-01,1,7.350000143051147e-01,7.350000143051147e-01,0.000000000000000e+00,0.000000000000000e+00
3.373919981718228e-02,3.759499996847256e+02,3.344734534575985e-02,2.519336317770247e-07,3.343308015081785e-02,-7.081805018223288e-03,2.508947403484806e-03,3.119178298191725e-08,2.508064319988149e-03,0.000000000000000e+00,0.000000000000000e+00,0.000000000000000e+00,9.999999999997999e+01,5.791460744002000e-14,0.000000000000000e+00,3.654282482867101e-03,0.000000000000000e+00,0.000000000000000e+00,9.807904000652706e-07,1.278000000000000e-09,4.680000000000000e+03,6.000000000000000e-01,1,7.360000014305115e-01,7.360000014305115e-01,0.000000000000000e+00,0.000000000000000e+00
3.361140146255666e-02,3.757500022597319e+02,3.331879207263663e-02,2.501357884036274e-07,3.330459395254180e-02,-7.099799896882038e-03,2.502103312398915e-03,3.096919284997285e-08,2.501224381154699e-03,0.000000000000000e+00,0.000000000000000e+00,0.000000000000000e+00,9.999999999998002e+01,5.791460744002000e-14,0.000000000000000e+00,3.656780056097642e-03,0.000000000000000e+00,0.000000000000000e+00,9.808317995322444e-07,1.278000000000000e-09,4.680000000000000e+03,6.000000000000001e-01,1,7.369999885559082e-01,7.369999885559082e-01,0.000000000000000e+00,0.000000000000000e+00
3.348360310793103e-02,3.755500048347380e+02,3.319023879951340e-02,2.483379450302301e-07,3.317610775426574e-02,-7.117794775540785e-03,2.495259221313024e-03,3.074660271802844e-08,2.494384442321248e-03,0.000000000000000e+00,0.000000000000000e+00,0.000000000000000e+00,9.999999999998001e+01,5.791460744002000e-14,0.000000000000000e+00,3.659277629328182e-03,0.000000000000000e+00,0.000000000000000e+00,9.808731989992183e-07,1.278000000000000e-09,4.680000000000000e+03,6.000000000000000e-01,1,7.379999756813049e-01,7.379999756813049e-01,0.000000000000000e+00,0.000000000000000e+00
3.335579713583179e-02,3.753499954888152e+02,3.306167786391934e-02,2.465399944956375e-07,3.304761389751688e-02,-7.135790726791694e-03,2.488414722282263e-03,3.052399931850748e-08,2.487544095790425e-03,0.000000000000000e+00,0.000000000000000e+00,0.000000000000000e+00,9.999999999998001e+01,5.791460744002000e-14,0.000000000000000e+00,3.661775351427604e-03,0.000000000000000e+00,0.000000000000000e+00,9.809146009338244e-07,1.278000000000000e-09,4.680000000000000e+03,6.000000000000000e-01,1,7.390000224113464e-01,7.390000224113464e-01,0.000000000000000e+00,0.000000000000000e+00
3.322799878120616e-02,3.751499980638214e+02,3.293312459079611e-02,2.447421511222402e-07,3.291912769924084e-02,-7.153785605450443e-03,2.481570631196372e-03,3.030140918656307e-08,2.480704156956975e-03,0.000000000000000e+00,0.000000000000000e+00,0.000000000000000e+00,9.999999999998001e+01,5.791460744002000e-14,0.000000000000000e+00,3.664272924658144e-03,0.000000000000000e+00,0.000000000000000e+00,9.809560004007981e-07,1.278000000000000e-09,4.680000000000000e+03,6.000000000000000e-01,1,7.400000095367432e-01,7.400000095367432e-01,0.000000000000000e+00,0.000000000000000e+00
3.310020042658052e-02,3.749500006388275e+02,3.280457131767288e-02,2.429443077488429e-07,3.279064150096479e-02,-7.171780484109191e-03,2.474726540110482e-03,3.007881905461866e-08,2.473864218123525e-03,0.000000000000000e+00,0.000000000000000e+00,0.000000000000000e+00,9.999999999998001e+01,5.791460744002000e-14,0.000000000000000e+00,3.666770497888685e-03,0.000000000000000e+00,0.000000000000000e+00,9.809973998677719e-07,1.278000000000000e-09,4.680000000000000e+03,6.000000000000000e-01,1,7.409999966621399e-01,7.409999966621399e-01,0.000000000000000e+00,0.000000000000000e+00
3.297240207195488e-02,3.747500032138337e+02,3.267601804454966e-02,2.411464643754455e-07,3.266215530268873e-02,-7.189775362767939e-03,2.467882449024590e-03,2.985622892267425e-08,2.467024279290074e-03,0.000000000000000e+00,0.000000000000000e+00,0.000000000000000e+00,9.999999999998001e+01,5.791460744002000e-14,0.000000000000000e+00,3.669268071119225e-03,0.000000000000000e+00,0.000000000000000e+00,9.810387993347458e-07,1.278000000000000e-09,4.680000000000000e+03,6.000000000000000e-01,1,7.419999837875366e-01,7.419999837875366e-01,0.000000000000000e+00,0.000000000000000e+00
3.284460371732926e-02,3.745500057888398e+02,3.254746477142642e-02,2.393486210020482e-07,3.253366910441267e-02,-7.207770241426687e-03,2.461038357938700e-03,2.963363879072985e-08,2.460184340456624e-03,0.000000000000000e+00,0.000000000000000e+00,0.000000000000000e+00,9.999999999998001e+01,5.791460744002000e-14,0.000000000000000e+00,3.671765644349765e-03,0.000000000000000e+00,0.000000000000000e+00,9.810801988017196e-07,1.278000000000000e-09,4.680000000000000e+03,6.000000000000000e-01,1,7.429999709129333e-01,7.429999709129333e-01,0.000000000000000e+00,0.000000000000000e+00
3.271679774523002e-02,3.743499964429170e+02,3.241890383583236e-02,2.375506704674556e-07,3.240517524766382e-02,-7.225766192677596e-03,2.454193858907938e-03,2.941103539120888e-08,2.453343993925800e-03,0.000000000000000e+00,0.000000000000000e+00,0.000000000000000e+00,9.999999999998001e+01,5.791460744002000e-14,0.000000000000000e+00,3.674263366449187e-03,0.000000000000000e+00,0.000000000000000e+00,9.811216007363255e-07,1.278000000000000e-09,4.680000000000000e+03,6.000000000000000e-01,1,7.440000176429749e-01,7.440000176429749e-01,0.000000000000000e+00,0.000000000000000e+00
3.258899939060439e-02,3.741499990179232e+02,3.229035056270913e-02,2.357528270940583e-07,3.227668904938777e-02,-7.243761071336344e-03,2.447349767822047e-03,2.918844525926448e-08,2.446504055092350e-03,0.000000000000000e+00,0.000000000000000e+00,0.000000000000000e+00,9.999999999998001e+01,5.791460744002000e-14,0.000000000000000e+00,3.676760939679728e-03,0.000000000000000e+00,0.000000000000000e+00,9.811630002032994e-07,1.278000000000000e-09,4.680000000000000e+03,6.000000000000000e-01,1,7.450000047683716e-01,7.450000047683716e-01,0.000000000000000e+00,0.000000000000000e+00
3.246120103597876e-02,3.739500015929293e+02,3.216179728958590e-02,2.339549837206609e-07,3.214820285111171e-02,-7.261755949995093e-03,2.440505676736157e-03,2.896585512732007e-08,2.439664116258899e-03,0.000000000000000e+00,0.000000000000000e+00,0.000000000000000e+00,9.999999999997999e+01,5.791460744002000e-14,0.000000000000000e+00,3.679258512910268e-03,0.000000000000000e+00,0.000000000000000e+00,9.812043996702733e-07,1.278000000000000e-09,4.680000000000000e+03,6.000000000000000e-01,1,7.459999918937683e-01,7.459999918937683e-01,0.000000000000000e+00,0.000000000000000e+00
3.233340268135312e-02,3.737500041679355e+02,3.203324401646268e-02,2.321571403472636e-07,3.201971665283566e-02,-7.279750828653841e-03,2.433661585650265e-03,2.874326499537566e-08,2.432824177425449e-03,0.000000000000000e+00,0.000000000000000e+00,0.000000000000000e+00,9.999999999998002e+01,5.791460744002000e-14,0.000000000000000e+00,3.681756086140808e-03,0.000000000000000e+00,0.000000000000000e+00,9.812457991372471e-07,1.278000000000000e-09,4.680000000000000e+03,6.000000000000000e-01,1,7.469999790191650e-01,7.469999790191650e-01,0.000000000000000e+00,0.000000000000000e+00
3.220559670925389e-02,3.735499948220126e+02,3.190468308086861e-02,2.303591898126710e-07,3.189122279608680e-02,-7.297746779904749e-03,2.426817086619504e-03,2.852066159585470e-08,2.425983830894626e-03,0.000000000000000e+00,0.000000000000000e+00,0.000000000000000e+00,9.999999999998001e+01,5.791460744002000e-14,0.000000000000000e+00,3.684253808240230e-03,0.000000000000000e+00,0.000000000000000e+00,9.812872010718533e-07,1.278000000000000e-09,4.680000000000000e+03,6.000000000000000e-01,1,7.480000257492065e-01,7.480000257492065e-01,0.000000000000000e+00,0.000000000000000e+00
3.207779835462826e-02,3.733499973970189e+02,3.177612980774538e-02,2.285613464392737e-07,3.176273659781075e-02,-7.315741658563498e-03,2.419972995533614e-03,2.829807146391029e-08,2.419143892061176e-03,0.000000000000000e+00,0.000000000000000e+00,0.000000000000000e+00,9.999999999998001e+01,5.791460744002000e-14,0.000000000000000e+00,3.686751381470771e-03,0.000000000000000e+00,0.000000000000000e+00,9.813286005388271e-07,1.278000000000000e-09,4.680000000000000e+03,6.000000000000000e-01,1,7.490000128746033e-01,7.490000128746033e-01,0.000000000000000e+00,0.000000000000000e+00
3.195000000000263e-02,3.731499999720250e+02,3.164757653462216e-02,2.267635030658764e-07,3.163425039953470e-02,-7.333736537222246e-03,2.413128904447723e-03,2.807548133196588e-08,2.412303953227725e-03,0.000000000000000e+00,0.000000000000000e+00,0.000000000000000e+00,9.999999999998002e+01,5.791460744002000e-14,0.000000000000000e+00,3.689248954701311e-03,0.000000000000000e+00,0.000000000000000e+00,9.813700000058010e-07,1.278000000000000e-09,4.680000000000000e+03,6.000000000000000e-01,1,7.500000000000000e-01,7.500000000000000e-01,0.000000000000000e+00,0.000000000000000e+00
3.182220164537700e-02,3.729500025470311e+02,3.151902326149893e-02,2.249656596924791e-07,3.150576420125864e-02,-7.351731415880995e-03,2.406284813361832e-03,2.785289120002148e-08,2.405464014394275e-03,0.000000000000000e+00,0.000000000000000e+00,0.000000000000000e+00,9.999999999998001e+01,5.791460744002000e-14,0.000000000000000e+00,3.691746527931851e-03,0.000000000000000e+00,0.000000000000000e+00,9.814113994727748e-07,1.278000000000000e-09,4.680000000000000e+03,6.000000000000000e-01,1,7.509999871253967e-01,7.509999871253967e-01,0.000000000000000e+00,0.000000000000000e+00
3.169440329075136e-02,3.727500051220373e+02,3.139046998837570e-02,2.231678163190817e-07,3.137727800298259e-02,-7.369726294539743e-03,2.399440722275941e-03,2.763030106807707e-08,2.398624075560825e-03,0.000000000000000e+00,0.000000000000000e+00,0.000000000000000e+00,9.999999999998001e+01,5.791460744002000e-14,0.000000000000000e+00,3.694244101162391e-03,0.000000000000000e+00,0.000000000000000e+00,9.814527989397487e-07,1.278000000000000e-09,4.680000000000000e+03,6.000000000000000e-01,1,7.519999742507935e-01,7.519999742507935e-01,0.000000000000000e+00,0.000000000000000e+00
3.156659731865213e-02,3.725499957761145e+02,3.126190905278164e-02,2.213698657844892e-07,3.124878414623373e-02,-7.387722245790651e-03,2.392596223245180e-03,2.740769766855611e-08,2.391783729030001e-03,0.000000000000000e+00,0.000000000000000e+00,0.000000000000000e+00,9.999999999998001e+01,5.791460744002000e-14,0.000000000000000e+00,3.696741823261814e-03,0.000000000000000e+00,0.000000000000000e+00,9.814942008743546e-07,1.278000000000000e-09,4.680000000000000e+03,6.000000000000000e-01,1,7.530000209808350e-01,7.530000209808350e-01,0.000000000000000e+00,0.000000000000000e+00
3.143879896402649e-02,3.723499983511207e+02,3.113335577965841e-02,2.195720224110918e-07,3.112029794795768e-02,-7.405717124449400e-03,2.385752132159289e-03,2.718510753661170e-08,2.384943790196551e-03,0.000000000000000e+00,0.000000000000000e+00,0.000000000000000e+00,9.999999999998001e+01,5.791460744002000e-14,0.000000000000000e+00,3.699239396492354e-03,0.000000000000000e+00,0.000000000000000e+00,9.815356003413285e-07,1.278000000000000e-09,4.680000000000000e+03,6.000000000000000e-01,1,7.540000081062317e-01,7.540000081062317e-01,0.000000000000000e+00,0.000000000000000e+00
3.131100060940087e-02,3.721500009261268e+02,3.100480250653518e-02,2.177741790376945e-07,3.099181174968163e-02,-7.423712003108149e-03,2.378908041073398e-03,2.696251740466730e-08,2.378103851363101e-03,0.000000000000000e+00,0.000000000000000e+00,0.000000000000000e+00,9.999999999998001e+01,5.791460744002000e-14,0.000000000000000e+00,3.701736969722894e-03,0.000000000000000e+00,0.000000000000000e+00,9.815769998083023e-07,1.278000000000000e-09,4.680000000000000e+03,6.000000000000000e-01,1,7.549999952316284e-01,7.549999952316284e-01,0.000000000000000e+00,0.000000000000000e+00
3.118320225477523e-02,3.719500035011329e+02,3.087624923341195e-02,2.159763356642972e-07,3.086332555140558e-02,-7.441706881766898e-03,2.372063949987507e-03,2.673992727272289e-08,2.371263912529650e-03,0.000000000000000e+00,0.000000000000000e+00,0.000000000000000e+00,9.999999999998001e+01,5.791460744002000e-14,0.000000000000000e+00,3.704234542953435e-03,0.000000000000000e+00,0.000000000000000e+00,9.816183992752762e-07,1.278000000000000e-09,4.680000000000000e+03,6.000000000000000e-01,1,7.559999823570251e-01,7.559999823570251e-01,0.000000000000000e+00,0.000000000000000e+00
3.105539628267600e-02,3.717499941552102e+02,3.074768829781789e-02,2.141783851297046e-07,3.073483169465671e-02,-7.459702833017804e-03,2.365219450956746e-03,2.651732387320192e-08,2.364423565998827e-03,0.000000000000000e+00,0.000000000000000e+00,0.000000000000000e+00,9.999999999998001e+01,5.791460744002000e-14,0.000000000000000e+00,3.706732265052856e-03,0.000000000000000e+00,0.000000000000000e+00,9.816598012098823e-07,1.278000000000000e-09,4.680000000000000e+03,6.000000000000000e-01,1,7.570000290870667e-01,7.570000290870667e-01,0.000000000000000e+00,0.000000000000000e+00
3.092759792805037e-02,3.715499967302163e+02,3.061913502469466e-02,2.123805417563073e-07,3.060634549638067e-02,-7.477697711676553e-03,2.358375359870855e-03,2.629473374125752e-08,2.357583627165377e-03,0.000000000000000e+00,0.000000000000000e+00,0.000000000000000e+00,9.999999999998001e+01,5.791460744002000e-14,0.000000000000000e+00,3.709229838283397e-03,0.000000000000000e+00,0.000000000000000e+00,9.817012006768562e-07,1.278000000000000e-09,4.680000000000000e+03,6.000000000000000e-01,1,7.580000162124634e-01,7.580000162124634e-01,0.000000000000000e+00,0.000000000000000e+00
3.079979957342473e-02,3.713499993052225e+02,3.049058175157144e-02,2.105826983829099e-07,3.047785929810461e-02,-7.495692590335302e-03,2.351531268784964e-03,2.607214360931311e-08,2.350743688331926e-03,0.000000000000000e+00,0.000000000000000e+00,0.000000000000000e+00,9.999999999998001e+01,5.791460744002000e-14,0.000000000000000e+00,3.711727411513937e-03,0.000000000000000e+00,0.000000000000000e+00,9.817426001438298e-07,1.278000000000000e-09,4.680000000000000e+03,6.000000000000000e-01,1,7.590000033378601e-01,7.590000033378601e-01,0.000000000000000e+00,0.000000000000000e+00
3.067200121879910e-02,3.711500018802286e+02,3.036202847844821e-02,2.087848550095126e-07,3.034937309982856e-02,-7.513687468994051e-03,2.344687177699073e-03,2.584955347736870e-08,2.343903749498476e-03,0.000000000000000e+00,0.000000000000000e+00,0.000000000000000e+00,9.999999999998001e+01,5.791460744002000e-14,0.000000000000000e+00,3.714224984744477e-03,0.000000000000000e+00,0.000000000000000e+00,9.817839996108037e-07,1.278000000000000e-09,4.680000000000000e+03,6.000000000000000e-01,1,7.599999904632568e-01,7.599999904632568e-01,0.000000000000000e+00,0.000000000000000e+00
3.054420286417322e-02,3.709500044552448e+02,3.023455091485648e-02,2.061580832688472e-07,3.022196162749980e-02,-7.531524941689689e-03,2.337899933976937e-03,2.552433411900042e-08,2.337120597140245e-03,0.000000000000000e+00,0.000000000000000e+00,0.000000000000000e+00,9.999999999998002e+01,5.646677470176274e-14,0.000000000000000e+00,3.716450277535338e-03,0.000000000000000e+00,0.000000000000000e+00,9.818253990777752e-07,1.278000000000000e-09,4.680000000000001e+03,6.000000000000000e-01,1,7.609999775886536e-01,7.609999775886536e-01,0.000000000000000e+00,0.000000000000000e+00
3.041639689207373e-02,3.707499951093320e+02,3.010706576317099e-02,2.035311470529415e-07,3.009454257100731e-02,-7.549363476094070e-03,2.331112286240489e-03,2.519909439703097e-08,2.330337041010990e-03,0.000000000000000e+00,0.000000000000000e+00,0.000000000000000e+00,9.999999999998001e+01,5.501884185696562e-14,0.000000000000000e+00,3.718675700368974e-03,0.000000000000000e+00,0.000000000000000e+00,9.818668010123786e-07,1.278000000000000e-09,4.680000000000000e+03,6.000000000000000e-01,1,7.620000243186951e-01,7.620000243186951e-01,0.000000000000000e+00,0.000000000000000e+00
3.028859853744785e-02,3.705499976843481e+02,2.997958820983762e-02,2.009043674073193e-07,2.996713110892752e-02,-7.567200947288628e-03,2.324325043060470e-03,2.487387405995376e-08,2.323553889194295e-03,0.000000000000000e+00,0.000000000000000e+00,0.000000000000000e+00,9.999999999998001e+01,5.357099531165860e-14,0.000000000000000e+00,3.720900990563271e-03,0.000000000000000e+00,0.000000000000000e+00,9.819082004793499e-07,1.278000000000000e-09,4.680000000000000e+03,6.000000000000000e-01,1,7.630000114440918e-01,7.630000114440918e-01,0.000000000000000e+00,0.000000000000000e+00
3.016080018282197e-02,3.703500002593643e+02,2.985211065650424e-02,1.982775877616971e-07,2.983971964684774e-02,-7.585038418483188e-03,2.317537799880450e-03,2.454865372287654e-08,2.316770737377600e-03,0.000000000000000e+00,0.000000000000000e+00,0.000000000000000e+00,9.999999999998001e+01,5.212314876635158e-14,0.000000000000000e+00,3.723126280757568e-03,0.000000000000000e+00,0.000000000000000e+00,9.819495999463212e-07,1.278000000000000e-09,4.680000000000000e+03,6.000000000000000e-01,1,7.639999985694885e-01,7.639999985694885e-01,0.000000000000000e+00,0.000000000000000e+00
3.003300182819609e-02,3.701500028343805e+02,2.972463310317087e-02,1.956508081160749e-07,2.971230818476795e-02,-7.602875889677747e-03,2.310750556700430e-03,2.422343338579933e-08,2.309987585560905e-03,0.000000000000000e+00,0.000000000000000e+00,0.000000000000000e+00,9.999999999998001e+01,5.067530222104456e-14,0.000000000000000e+00,3.725351570951866e-03,0.000000000000000e+00,0.000000000000000e+00,9.819909994132925e-07,1.278000000000000e-09,4.680000000000000e+03,6.000000000000000e-01,1,7.649999856948853e-01,7.649999856948853e-01,0.000000000000000e+00,0.000000000000000e+00
2.990520347357020e-02,3.699500054093966e+02,2.959715554983749e-02,1.930240284704527e-07,2.958489672268816e-02,-7.620713360872305e-03,2.303963313520411e-03,2.389821304872211e-08,2.303204433744209e-03,0.000000000000000e+00,0.000000000000000e+00,0.000000000000000e+00,9.999999999998001e+01,4.922745567573753e-14,0.000000000000000e+00,3.727576861146163e-03,0.000000000000000e+00,0.000000000000000e+00,9.820323988802638e-07,1.278000000000000e-09,4.680000000000000e+03,6.000000000000000e-01,1,7.659999728202820e-01,7.659999728202820e-01,0.000000000000000e+00,0.000000000000000e+00
2.977739750147072e-02,3.697499960634838e+02,2.946967039815201e-02,1.903970922545470e-07,2.945747766619566e-02,-7.638551895276686e-03,2.297175665783964e-03,2.357297332675266e-08,2.296420877614955e-03,0.000000000000000e+00,0.000000000000000e+00,0.000000000000000e+00,9.999999999998001e+01,4.777952283094042e-14,0.000000000000000e+00,3.729802283979800e-03,0.000000000000000e+00,0.000000000000000e+00,9.820738008148674e-07,1.278000000000000e-09,4.680000000000000e+03,6.000000000000000e-01,1,7.670000195503235e-01,7.670000195503235e-01,0.000000000000000e+00,0.000000000000000e+00
2.964959914684484e-02,3.695499986384999e+02,2.934219284481863e-02,1.877703126089248e-07,2.933006620411588e-02,-7.656389366471245e-03,2.290388422603944e-03,2.324775298967545e-08,2.289637725798259e-03,0.000000000000000e+00,0.000000000000000e+00,0.000000000000000e+00,9.999999999998001e+01,4.633167628563340e-14,0.000000000000000e+00,3.732027574174096e-03,0.000000000000000e+00,0.000000000000000e+00,9.821152002818387e-07,1.278000000000000e-09,4.680000000000000e+03,6.000000000000000e-01,1,7.680000066757202e-01,7.680000066757202e-01,0.000000000000000e+00,0.000000000000000e+00
2.952180079221895e-02,3.693500012135161e+02,2.921471529148525e-02,1.851435329633026e-07,2.920265474203609e-02,-7.674226837665803e-03,2.283601179423924e-03,2.292253265259823e-08,2.282854573981564e-03,0.000000000000000e+00,0.000000000000000e+00,0.000000000000000e+00,9.999999999998001e+01,4.488382974032638e-14,0.000000000000000e+00,3.734252864368393e-03,0.000000000000000e+00,0.000000000000000e+00,9.821565997488101e-07,1.278000000000000e-09,4.680000000000000e+03,6.000000000000000e-01,1,7.689999938011169e-01,7.689999938011169e-01,0.000000000000000e+00,0.000000000000000e+00
2.939400243759307e-02,3.691500037885323e+02,2.908723773815188e-02,1.825167533176804e-07,2.907524327995631e-02,-7.692064308860363e-03,2.276813936243904e-03,2.259731231552102e-08,2.276071422164869e-03,0.000000000000000e+00,0.000000000000000e+00,0.000000000000000e+00,9.999999999998002e+01,4.343598319501935e-14,0.000000000000000e+00,3.736478154562691e-03,0.000000000000000e+00,0.000000000000000e+00,9.821979992157814e-07,1.278000000000000e-09,4.680000000000000e+03,6.000000000000000e-01,1,7.699999809265137e-01,7.699999809265137e-01,0.000000000000000e+00,0.000000000000000e+00
2.926619646549359e-02,3.689499944426194e+02,2.895975258646639e-02,1.798898171017747e-07,2.894782422346381e-02,-7.709902843264745e-03,2.270026288507458e-03,2.227207259355157e-08,2.269287866035614e-03,0.000000000000000e+00,0.000000000000000e+00,0.000000000000000e+00,9.999999999998002e+01,4.198805035022224e-14,0.000000000000000e+00,3.738703577396327e-03,0.000000000000000e+00,0.000000000000000e+00,9.822394011503850e-07,1.278000000000000e-09,4.680000000000000e+03,6.000000000000000e-01,1,7.710000276565552e-01,7.710000276565552e-01,0.000000000000000e+00,0.000000000000000e+00
2.913839811086770e-02,3.687499970176356e+02,2.883227503313301e-02,1.772630374561525e-07,2.882041276138402e-02,-7.727740314459303e-03,2.263239045327437e-03,2.194685225647435e-08,2.262504714218919e-03,0.000000000000000e+00,0.000000000000000e+00,0.000000000000000e+00,9.999999999998001e+01,4.054020380491521e-14,0.000000000000000e+00,3.740928867590624e-03,0.000000000000000e+00,0.000000000000000e+00,9.822808006173563e-07,1.278000000000000e-09,4.680000000000000e+03,6.000000000000000e-01,1,7.720000147819519e-01,7.720000147819519e-01,0.000000000000000e+00,0.000000000000000e+00
2.901059975624182e-02,3.685499995926518e+02,2.870479747979964e-02,1.746362578105303e-07,2.869300129930424e-02,-7.745577785653861e-03,2.256451802147418e-03,2.162163191939714e-08,2.255721562402224e-03,0.000000000000000e+00,0.000000000000000e+00,0.000000000000000e+00,9.999999999998002e+01,3.909235725960820e-14,0.000000000000000e+00,3.743154157784922e-03,0.000000000000000e+00,0.000000000000000e+00,9.823222000843278e-07,1.278000000000000e-09,4.680000000000000e+03,6.000000000000000e-01,1,7.730000019073486e-01,7.730000019073486e-01,0.000000000000000e+00,0.000000000000000e+00
2.888280140161594e-02,3.683500021676679e+02,2.857731992646627e-02,1.720094781649081e-07,2.856558983722446e-02,-7.763415256848420e-03,2.249664558967398e-03,2.129641158231993e-08,2.248938410585529e-03,0.000000000000000e+00,0.000000000000000e+00,0.000000000000000e+00,9.999999999998001e+01,3.764451071430117e-14,0.000000000000000e+00,3.745379447979219e-03,0.000000000000000e+00,0.000000000000000e+00,9.823635995512991e-07,1.278000000000000e-09,4.680000000000000e+03,6.000000000000000e-01,1,7.739999890327454e-01,7.739999890327454e-01,0.000000000000000e+00,0.000000000000000e+00
2.875500304699006e-02,3.681500047426841e+02,2.844984237313289e-02,1.693826985192859e-07,2.843817837514467e-02,-7.781252728042979e-03,2.242877315787378e-03,2.097119124524271e-08,2.242155258768834e-03,0.000000000000000e+00,0.000000000000000e+00,0.000000000000000e+00,9.999999999998001e+01,3.619666416899416e-14,0.000000000000000e+00,3.747604738173516e-03,0.000000000000000e+00,0.000000000000000e+00,9.824049990182704e-07,1.278000000000000e-09,4.680000000000000e+03,6.000000000000000e-01,1,7.749999761581421e-01,7.749999761581421e-01,0.000000000000000e+00,0.000000000000000e+00
2.862719707489057e-02,3.679499953967713e+02,2.832235722144741e-02,1.667557623033802e-07,2.831075931865217e-02,-7.799091262447361e-03,2.236089668050932e-03,2.064595152327326e-08,2.235371702639579e-03,0.000000000000000e+00,0.000000000000000e+00,0.000000000000000e+00,9.999999999998002e+01,3.474873132419704e-14,0.000000000000000e+00,3.749830161007152e-03,0.000000000000000e+00,0.000000000000000e+00,9.824464009528740e-07,1.278000000000000e-09,4.680000000000000e+03,6.000000000000000e-01,1,7.760000228881836e-01,7.760000228881836e-01,0.000000000000000e+00,0.000000000000000e+00
2.849939872026469e-02,3.677499979717875e+02,2.819487966811403e-02,1.641289826577580e-07,2.818334785657239e-02,-7.816928733641919e-03,2.229302424870912e-03,2.032073118619605e-08,2.228588550822883e-03,0.000000000000000e+00,0.000000000000000e+00,0.000000000000000e+00,9.999999999998001e+01,3.330088477889002e-14,0.000000000000000e+00,3.752055451201450e-03,0.000000000000000e+00,0.000000000000000e+00,9.824878004198453e-07,1.278000000000000e-09,4.680000000000000e+03,6.000000000000000e-01,1,7.770000100135803e-01,7.770000100135803e-01,0.000000000000000e+00,0.000000000000000e+00
2.837160036563881e-02,3.675500005468036e+02,2.806740211478066e-02,1.615022030121358e-07,2.805593639449260e-02,-7.834766204836478e-03,2.222515181690892e-03,1.999551084911884e-08,2.221805399006189e-03,0.000000000000000e+00,0.000000000000000e+00,0.000000000000000e+00,9.999999999998001e+01,3.185303823358300e-14,0.000000000000000e+00,3.754280741395746e-03,0.000000000000000e+00,0.000000000000000e+00,9.825291998868167e-07,1.278000000000000e-09,4.680000000000000e+03,6.000000000000000e-01,1,7.779999971389771e-01,7.779999971389771e-01,0.000000000000000e+00,0.000000000000000e+00
2.824380201101293e-02,3.673500031218198e+02,2.793992456144728e-02,1.588754233665136e-07,2.792852493241282e-02,-7.852603676031036e-03,2.215727938510872e-03,1.967029051204162e-08,2.215022247189493e-03,0.000000000000000e+00,0.000000000000000e+00,0.000000000000000e+00,9.999999999998002e+01,3.040519168827598e-14,0.000000000000000e+00,3.756506031590044e-03,0.000000000000000e+00,0.000000000000000e+00,9.825705993537880e-07,1.278000000000000e-09,4.680000000000000e+03,6.000000000000001e-01,1,7.789999842643738e-01,7.789999842643738e-01,0.000000000000000e+00,0.000000000000000e+00
2.811600365638704e-02,3.671500056968359e+02,2.781244700811390e-02,1.562486437208914e-07,2.780111347033302e-02,-7.870441147225595e-03,2.208940695330852e-03,1.934507017496441e-08,2.208239095372798e-03,0.000000000000000e+00,0.000000000000000e+00,0.000000000000000e+00,9.999999999998001e+01,2.895734514296895e-14,0.000000000000000e+00,3.758731321784341e-03,0.000000000000000e+00,0.000000000000000e+00,9.826119988207593e-07,1.278000000000000e-09,4.680000000000000e+03,6.000000000000000e-01,1,7.799999713897705e-01,7.799999713897705e-01,0.000000000000000e+00,0.000000000000000e+00
2.798819768428756e-02,3.669499963509231e+02,2.768496185642842e-02,1.536217075049857e-07,2.767369441384053e-02,-7.888279681629978e-03,2.202153047594405e-03,1.901983045299496e-08,2.201455539243543e-03,0.000000000000000e+00,0.000000000000000e+00,0.000000000000000e+00,9.999999999998001e+01,2.750941229817184e-14,0.000000000000000e+00,3.760956744617978e-03,0.000000000000000e+00,0.000000000000000e+00,9.826534007553629e-07,1.278000000000000e-09,4.680000000000000e+03,6.000000000000000e-01,1,7.810000181198120e-01,7.810000181198120e-01,0.000000000000000e+00,0.000000000000000e+00
2.786039932966167e-02,3.667499989259393e+02,2.755748430309504e-02,1.509949278593635e-07,2.754628295176074e-02,-7.906117152824537e-03,2.195365804414386e-03,1.869461011591774e-08,2.194672387426848e-03,0.000000000000000e+00,0.000000000000000e+00,0.000000000000000e+00,9.999999999998001e+01,2.606156575286482e-14,0.000000000000000e+00,3.763182034812275e-03,0.000000000000000e+00,0.000000000000000e+00,9.826948002223342e-07,1.278000000000000e-09,4.680000000000000e+03,6.000000000000000e-01,1,7.820000052452087e-01,7.820000052452087e-01,0.000000000000000e+00,0.000000000000000e+00
2.773260097503579e-02,3.665500015009554e+02,2.743000674976167e-02,1.483681482137413e-07,2.741887148968096e-02,-7.923954624019094e-03,2.188578561234366e-03,1.836938977884053e-08,2.187889235610153e-03,0.000000000000000e+00,0.000000000000000e+00,0.000000000000000e+00,9.999999999998001e+01,2.461371920755779e-14,0.000000000000000e+00,3.765407325006572e-03,0.000000000000000e+00,0.000000000000000e+00,9.827361996893055e-07,1.278000000000000e-09,4.680000000000000e+03,6.000000000000000e-01,1,7.829999923706055e-01,7.829999923706055e-01,0.000000000000000e+00,0.000000000000000e+00
2.760480262040991e-02,3.663500040759716e+02,2.730252919642829e-02,1.457413685681191e-07,2.729146002760117e-02,-7.941792095213653e-03,2.181791318054346e-03,1.804416944176331e-08,2.181106083793458e-03,0.000000000000000e+00,0.000000000000000e+00,0.000000000000000e+00,9.999999999998001e+01,2.316587266225077e-14,0.000000000000000e+00,3.767632615200869e-03,0.000000000000000e+00,0.000000000000000e+00,9.827775991562768e-07,1.278000000000000e-09,4.680000000000000e+03,6.000000000000000e-01,1,7.839999794960022e-01,7.839999794960022e-01,0.000000000000000e+00,0.000000000000000e+00
2.747699664831042e-02,3.661499947300588e+02,2.717504404474281e-02,1.431144323522134e-07,2.716404097110867e-02,-7.959630629618035e-03,2.175003670317899e-03,1.771892971979386e-08,2.174322527664203e-03,0.000000000000000e+00,0.000000000000000e+00,0.000000000000000e+00,9.999999999998001e+01,2.171793981745366e-14,0.000000000000000e+00,3.769858038034505e-03,0.000000000000000e+00,0.000000000000000e+00,9.828190010908804e-07,1.278000000000000e-09,4.680000000000000e+03,6.000000000000000e-01,1,7.850000262260437e-01,7.850000262260437e-01,0.000000000000000e+00,0.000000000000000e+00
2.734919829368454e-02,3.659499973050749e+02,2.704756649140943e-02,1.404876527065912e-07,2.703662950902889e-02,-7.977468100812594e-03,2.168216427137879e-03,1.739370938271665e-08,2.167539375847508e-03,0.000000000000000e+00,0.000000000000000e+00,0.000000000000000e+00,9.999999999997999e+01,2.027009327214664e-14,0.000000000000000e+00,3.772083328228803e-03,0.000000000000000e+00,0.000000000000000e+00,9.828604005578517e-07,1.278000000000000e-09,4.680000000000000e+03,6.000000000000000e-01,1,7.860000133514404e-01,7.860000133514404e-01,0.000000000000000e+00,0.000000000000000e+00
2.722139993905866e-02,3.657499998800911e+02,2.692008893807606e-02,1.378608730609690e-07,2.690921804694910e-02,-7.995305572007151e-03,2.161429183957860e-03,1.706848904563944e-08,2.160756224030813e-03,0.000000000000000e+00,0.000000000000000e+00,0.000000000000000e+00,9.999999999998001e+01,1.882224672683961e-14,0.000000000000000e+00,3.774308618423100e-03,0.000000000000000e+00,0.000000000000000e+00,9.829018000248231e-07,1.278000000000000e-09,4.680000000000000e+03,6.000000000000000e-01,1,7.870000004768372e-01,7.870000004768372e-01,0.000000000000000e+00,0.000000000000000e+00
2.709360158443277e-02,3.655500024551072e+02,2.679261138474268e-02,1.352340934153468e-07,2.678180658486932e-02,-8.013143043201710e-03,2.154641940777840e-03,1.674326870856222e-08,2.153973072214117e-03,0.000000000000000e+00,0.000000000000000e+00,0.000000000000000e+00,9.999999999998001e+01,1.737440018153259e-14,0.000000000000000e+00,3.776533908617397e-03,0.000000000000000e+00,0.000000000000000e+00,9.829431994917944e-07,1.278000000000000e-09,4.680000000000000e+03,6.000000000000000e-01,1,7.879999876022339e-01,7.879999876022339e-01,0.000000000000000e+00,0.000000000000000e+00
2.696580322980690e-02,3.653500050301234e+02,2.666513383140930e-02,1.326073137697246e-07,2.665439512278953e-02,-8.030980514396269e-03,2.147854697597820e-03,1.641804837148501e-08,2.147189920397422e-03,0.000000000000000e+00,0.000000000000000e+00,0.000000000000000e+00,9.999999999998001e+01,1.592655363622557e-14,0.000000000000000e+00,3.778759198811694e-03,0.000000000000000e+00,0.000000000000000e+00,9.829845989587657e-07,1.278000000000000e-09,4.680000000000000e+03,6.000000000000000e-01,1,7.889999747276306e-01,7.889999747276306e-01,0.000000000000000e+00,0.000000000000000e+00
2.683799725770741e-02,3.651499956842106e+02,2.653764867972382e-02,1.299803775538189e-07,2.652697606629703e-02,-8.048819048800651e-03,2.141067049861373e-03,1.609280864951555e-08,2.140406364268167e-03,0.000000000000000e+00,0.000000000000000e+00,0.000000000000000e+00,9.999999999998001e+01,1.447862079142845e-14,0.000000000000000e+00,3.780984621645331e-03,0.000000000000000e+00,0.000000000000000e+00,9.830260008933693e-07,1.278000000000000e-09,4.680000000000000e+03,6.000000000000000e-01,1,7.900000214576721e-01,7.900000214576721e-01,0.000000000000000e+00,0.000000000000000e+00
2.671019890308153e-02,3.649499982592267e+02,2.641017112639044e-02,1.273535979081967e-07,2.639956460421725e-02,-8.066656519995210e-03,2.134279806681353e-03,1.576758831243834e-08,2.133623212451473e-03,0.000000000000000e+00,0.000000000000000e+00,0.000000000000000e+00,9.999999999998001e+01,1.303077424612143e-14,0.000000000000000e+00,3.783209911839627e-03,0.000000000000000e+00,0.000000000000000e+00,9.830674003603406e-07,1.278000000000000e-09,4.680000000000000e+03,6.000000000000000e-01,1,7.910000085830688e-01,7.910000085830688e-01,0.000000000000000e+00,0.000000000000000e+00
2.658240054845564e-02,3.647500008342429e+02,2.628269357305707e-02,1.247268182625745e-07,2.627215314213746e-02,-8.084493991189769e-03,2.127492563501334e-03,1.544236797536113e-08,2.126840060634777e-03,0.000000000000000e+00,0.000000000000000e+00,0.000000000000000e+00,9.999999999998002e+01,1.158292770081441e-14,0.000000000000000e+00,3.785435202033925e-03,0.000000000000000e+00,0.000000000000000e+00,9.831087998273119e-07,1.278000000000000e-09,4.680000000000000e+03,6.000000000000000e-01,1,7.919999957084656e-01,7.919999957084656e-01,0.000000000000000e+00,0.000000000000000e+00
2.645460219382976e-02,3.645500034092590e+02,2.615521601972369e-02,1.221000386169523e-07,2.614474168005768e-02,-8.102331462384328e-03,2.120705320321314e-03,1.511714763828391e-08,2.120056908818082e-03,0.000000000000000e+00,0.000000000000000e+00,0.000000000000000e+00,9.999999999998002e+01,1.013508115550739e-14,0.000000000000000e+00,3.787660492228222e-03,0.000000000000000e+00,0.000000000000000e+00,9.831501992942832e-07,1.278000000000000e-09,4.680000000000000e+03,6.000000000000000e-01,1,7.929999828338623e-01,7.929999828338623e-01,0.000000000000000e+00,0.000000000000000e+00
2.632679622173028e-02,3.643499940633463e+02,2.602773086803820e-02,1.194731024010466e-07,2.601732262356518e-02,-8.120169996788709e-03,2.113917672584867e-03,1.479190791631446e-08,2.113273352688827e-03,0.000000000000000e+00,0.000000000000000e+00,0.000000000000000e+00,9.999999999997999e+01,8.687148310710274e-15,0.000000000000000e+00,3.789885915061859e-03,0.000000000000000e+00,0.000000000000000e+00,9.831916012288868e-07,1.278000000000000e-09,4.680000000000000e+03,6.000000000000000e-01,1,7.940000295639038e-01,7.940000295639038e-01,0.000000000000000e+00,0.000000000000000e+00
2.619899786710439e-02,3.641499966383624e+02,2.590025331470483e-02,1.168463227554244e-07,2.588991116148540e-02,-8.138007467983268e-03,2.107130429404847e-03,1.446668757923725e-08,2.106490200872132e-03,0.000000000000000e+00,0.000000000000000e+00,0.000000000000000e+00,9.999999999997999e+01,7.239301765403254e-15,0.000000000000000e+00,3.792111205256155e-03,0.000000000000000e+00,0.000000000000000e+00,9.832330006958583e-07,1.278000000000000e-09,4.680000000000000e+03,6.000000000000000e-01,1,7.950000166893005e-01,7.950000166893005e-01,0.000000000000000e+00,0.000000000000000e+00
2.607119951247851e-02,3.639499992133786e+02,2.577277576137145e-02,1.142195431098022e-07,2.576249969940561e-02,-8.155844939177826e-03,2.100343186224827e-03,1.414146724216003e-08,2.099707049055437e-03,0.000000000000000e+00,0.000000000000000e+00,0.000000000000000e+00,9.999999999998001e+01,5.791455220096227e-15,0.000000000000000e+00,3.794336495450453e-03,0.000000000000000e+00,0.000000000000000e+00,9.832744001628297e-07,1.278000000000000e-09,4.680000000000000e+03,6.000000000000000e-01,1,7.960000038146973e-01,7.960000038146973e-01,0.000000000000000e+00,0.000000000000000e+00
2.594340115785263e-02,3.637500017883947e+02,2.564529820803808e-02,1.115927634641800e-07,2.563508823732582e-02,-8.173682410372385e-03,2.093555943044808e-03,1.381624690508282e-08,2.092923897238742e-03,0.000000000000000e+00,0.000000000000000e+00,0.000000000000000e+00,9.999999999998001e+01,4.343608674789208e-15,0.000000000000000e+00,3.796561785644750e-03,0.000000000000000e+00,0.000000000000000e+00,9.833157996298010e-07,1.278000000000000e-09,4.680000000000000e+03,6.000000000000000e-01,1,7.969999909400940e-01,7.969999909400940e-01,0.000000000000000e+00,0.000000000000000e+00
2.581560280322675e-02,3.635500043634109e+02,2.551782065470470e-02,1.089659838185578e-07,2.550767677524604e-02,-8.191519881566944e-03,2.086768699864788e-03,1.349102656800561e-08,2.086140745422046e-03,0.000000000000000e+00,0.000000000000000e+00,0.000000000000000e+00,9.999999999998001e+01,2.895762129482189e-15,0.000000000000000e+00,3.798787075839047e-03,0.000000000000000e+00,0.000000000000000e+00,9.833571990967723e-07,1.278000000000000e-09,4.680000000000000e+03,6.000000000000000e-01,1,7.979999780654907e-01,7.979999780654907e-01,0.000000000000000e+00,0.000000000000000e+00
2.568779683112726e-02,3.633499950174980e+02,2.539033550301922e-02,1.063390476026521e-07,2.538025771875354e-02,-8.209358415971327e-03,2.079981052128341e-03,1.316578684603615e-08,2.079357189292792e-03,0.000000000000000e+00,0.000000000000000e+00,0.000000000000000e+00,9.999999999998001e+01,1.447829284685075e-15,0.000000000000000e+00,3.801012498672684e-03,0.000000000000000e+00,0.000000000000000e+00,9.833986010313757e-07,1.278000000000000e-09,4.680000000000000e+03,6.000000000000000e-01,1,7.990000247955322e-01,7.990000247955322e-01,0.000000000000000e+00,0.000000000000000e+00
2.555999847650138e-02,3.631499975925142e+02,2.526285794655199e-02,1.037123014225371e-07,2.525284625339607e-02,-8.227195887563842e-03,2.073193808778956e-03,1.284057065230745e-08,2.072574037297828e-03,0.000000000000000e+00,0.000000000000000e+00,0.000000000000000e+00,9.999999999998001e+01,-7.686370712755117e-21,0.000000000000000e+00,3.803237785621129e-03,0.000000000000000e+00,0.000000000000000e+00,9.834400004983470e-07,1.278000000000000e-09,4.680000000000000e+03,6.000000000000000e-01,1,8.000000119209290e-01,8.000000119209290e-01,0.000000000000000e+00,0.000000000000000e+00
2.543220012187575e-02,3.629500001675404e+02,2.513511752146528e-02,1.038926581061560e-07,2.512515985498054e-02,-8.245066740002074e-03,2.066392359043568e-03,1.286290052742241e-08,2.065775932070655e-03,0.000000000000000e+00,0.000000000000000e+00,0.000000000000000e+00,9.999999999998001e+01,-6.447518510776481e-16,0.000000000000000e+00,3.805190809018524e-03,0.000000000000000e+00,0.000000000000000e+00,9.834813999653160e-07,1.278000000000000e-09,4.680000000000000e+03,6.000000000000000e-01,1,8.009999990463257e-01,8.009999990463257e-01,0.000000000000000e+00,0.000000000000000e+00
2.530440176725011e-02,3.627500027425665e+02,2.500737709637857e-02,1.040730147897749e-07,2.499747345656499e-02,-8.262937592440307e-03,2.059590909308179e-03,1.288523040253736e-08,2.058977826843481e-03,0.000000000000000e+00,0.000000000000000e+00,0.000000000000000e+00,9.999999999997999e+01,-1.289496015784583e-15,0.000000000000000e+00,3.807143832415919e-03,0.000000000000000e+00,0.000000000000000e+00,9.835227994322847e-07,1.278000000000000e-09,4.680000000000000e+03,6.000000000000000e-01,1,8.019999861717224e-01,8.019999861717224e-01,0.000000000000000e+00,0.000000000000000e+00
2.517660341262448e-02,3.625500053175927e+02,2.487963667129186e-02,1.042533714733938e-07,2.486978705814944e-02,-8.280808444878541e-03,2.052789459572791e-03,1.290756027765233e-08,2.052179721616308e-03,0.000000000000000e+00,0.000000000000000e+00,0.000000000000000e+00,9.999999999998001e+01,-1.934240180491519e-15,0.000000000000000e+00,3.809096855813314e-03,0.000000000000000e+00,0.000000000000000e+00,9.835641988992535e-07,1.278000000000000e-09,4.680000000000000e+03,6.000000000000000e-01,1,8.029999732971191e-01,8.029999732971191e-01,0.000000000000000e+00,0.000000000000000e+00
2.504879744052525e-02,3.623499959716899e+02,2.475188863218446e-02,1.044337389072472e-07,2.474209304893350e-02,-8.298680362516299e-03,2.045987604434187e-03,1.292989148374870e-08,2.045381211185270e-03,0.000000000000000e+00,0.000000000000000e+00,0.000000000000000e+00,9.999999999998001e+01,-2.579022775440137e-15,0.000000000000000e+00,3.811049995621474e-03,0.000000000000000e+00,0.000000000000000e+00,9.836056008338548e-07,1.278000000000000e-09,4.680000000000001e+03,6.000000000000001e-01,1,8.040000200271606e-01,8.040000200271606e-01,0.000000000000000e+00,0.000000000000000e+00
2.492099908589962e-02,3.621499985467161e+02,2.462414820709774e-02,1.046140955908661e-07,2.461440665051795e-02,-8.316551214954532e-03,2.039186154698799e-03,1.295222135886366e-08,2.038583105958097e-03,0.000000000000000e+00,0.000000000000000e+00,0.000000000000000e+00,9.999999999998001e+01,-3.223766940147073e-15,0.000000000000000e+00,3.813003019018869e-03,0.000000000000000e+00,0.000000000000000e+00,9.836470003008236e-07,1.278000000000000e-09,4.680000000000000e+03,6.000000000000000e-01,1,8.050000071525574e-01,8.050000071525574e-01,0.000000000000000e+00,0.000000000000000e+00
2.479320073127398e-02,3.619500011217422e+02,2.449640778201103e-02,1.047944522744850e-07,2.448672025210241e-02,-8.334422067392763e-03,2.032384704963410e-03,1.297455123397861e-08,2.031785000730923e-03,0.000000000000000e+00,0.000000000000000e+00,0.000000000000000e+00,9.999999999998001e+01,-3.868511104854008e-15,0.000000000000000e+00,3.814956042416264e-03,0.000000000000000e+00,0.000000000000000e+00,9.836883997677923e-07,1.278000000000000e-09,4.680000000000000e+03,6.000000000000000e-01,1,8.059999942779541e-01,8.059999942779541e-01,0.000000000000000e+00,0.000000000000000e+00
2.466540237664835e-02,3.617500036967683e+02,2.436866735692432e-02,1.049748089581039e-07,2.435903385368687e-02,-8.352292919830997e-03,2.025583255228022e-03,1.299688110909357e-08,2.024986895503750e-03,0.000000000000000e+00,0.000000000000000e+00,0.000000000000000e+00,9.999999999998002e+01,-4.513255269560943e-15,0.000000000000000e+00,3.816909065813659e-03,0.000000000000000e+00,0.000000000000000e+00,9.837297992347611e-07,1.278000000000000e-09,4.680000000000000e+03,6.000000000000000e-01,1,8.069999814033508e-01,8.069999814033508e-01,0.000000000000000e+00,0.000000000000000e+00
2.453759640454912e-02,3.615499943508656e+02,2.424091931781692e-02,1.051551763919572e-07,2.423133984447092e-02,-8.370164837468755e-03,2.018781400089418e-03,1.301921231518994e-08,2.018188385072713e-03,0.000000000000000e+00,0.000000000000000e+00,0.000000000000000e+00,9.999999999998002e+01,-5.158037864509561e-15,0.000000000000000e+00,3.818862205621819e-03,0.000000000000000e+00,0.000000000000000e+00,9.837712011693624e-07,1.278000000000000e-09,4.680000000000000e+03,6.000000000000000e-01,1,8.080000281333923e-01,8.080000281333923e-01,0.000000000000000e+00,0.000000000000000e+00
2.440979804992348e-02,3.613499969258917e+02,2.411317889273021e-02,1.053355330755761e-07,2.410365344605537e-02,-8.388035689906988e-03,2.011979950354029e-03,1.304154219030490e-08,2.011390279845540e-03,0.000000000000000e+00,0.000000000000000e+00,0.000000000000000e+00,9.999999999998001e+01,-5.802782029216497e-15,0.000000000000000e+00,3.820815229019213e-03,0.000000000000000e+00,0.000000000000000e+00,9.838126006363311e-07,1.278000000000000e-09,4.680000000000000e+03,6.000000000000000e-01,1,8.090000152587891e-01,8.090000152587891e-01,0.000000000000000e+00,0.000000000000000e+00
2.428199969529785e-02,3.611499995009178e+02,2.398543846764349e-02,1.055158897591950e-07,2.397596704763983e-02,-8.405906542345220e-03,2.005178500618641e-03,1.306387206541986e-08,2.004592174618366e-03,0.000000000000000e+00,0.000000000000000e+00,0.000000000000000e+00,9.999999999998001e+01,-6.447526193923432e-15,0.000000000000000e+00,3.822768252416608e-03,0.000000000000000e+00,0.000000000000000e+00,9.838540001032999e-07,1.278000000000000e-09,4.680000000000000e+03,6.000000000000000e-01,1,8.100000023841858e-01,8.100000023841858e-01,0.000000000000000e+00,0.000000000000000e+00
2.415420134067222e-02,3.609500020759440e+02,2.385769804255678e-02,1.056962464428140e-07,2.384828064922429e-02,-8.423777394783453e-03,1.998377050883252e-03,1.308620194053482e-08,1.997794069391193e-03,0.000000000000000e+00,0.000000000000000e+00,0.000000000000000e+00,9.999999999998001e+01,-7.092270358630367e-15,0.000000000000000e+00,3.824721275814003e-03,0.000000000000000e+00,0.000000000000000e+00,9.838953995702687e-07,1.278000000000000e-09,4.680000000000000e+03,6.000000000000000e-01,1,8.109999895095825e-01,8.109999895095825e-01,0.000000000000000e+00,0.000000000000000e+00
2.402640298604658e-02,3.607500046509701e+02,2.372995761747007e-02,1.058766031264329e-07,2.372059425080874e-02,-8.441648247221685e-03,1.991575601147863e-03,1.310853181564978e-08,1.990995964164019e-03,0.000000000000000e+00,0.000000000000000e+00,0.000000000000000e+00,9.999999999997999e+01,-7.737014523337303e-15,0.000000000000000e+00,3.826674299211398e-03,0.000000000000000e+00,0.000000000000000e+00,9.839367990372375e-07,1.278000000000000e-09,4.680000000000000e+03,6.000000000000000e-01,1,8.119999766349792e-01,8.119999766349792e-01,0.000000000000000e+00,0.000000000000000e+00
2.389859701394735e-02,3.605499953050674e+02,2.360220957836267e-02,1.060569705602862e-07,2.359290024159279e-02,-8.459520164859445e-03,1.984773746009260e-03,1.313086302174615e-08,1.984197453732982e-03,0.000000000000000e+00,0.000000000000000e+00,0.000000000000000e+00,9.999999999998002e+01,-8.381797118285920e-15,0.000000000000000e+00,3.828627439019558e-03,0.000000000000000e+00,0.000000000000000e+00,9.839782009718387e-07,1.278000000000000e-09,4.680000000000000e+03,6.000000000000000e-01,1,8.130000233650208e-01,8.130000233650208e-01,0.000000000000000e+00,0.000000000000000e+00
2.377079865932172e-02,3.603499978800935e+02,2.347446915327596e-02,1.062373272439051e-07,2.346521384317725e-02,-8.477391017297678e-03,1.977972296273871e-03,1.315319289686111e-08,1.977399348505809e-03,0.000000000000000e+00,0.000000000000000e+00,0.000000000000000e+00,9.999999999998001e+01,-9.026541282992856e-15,0.000000000000000e+00,3.830580462416953e-03,0.000000000000000e+00,0.000000000000000e+00,9.840196004388075e-07,1.278000000000000e-09,4.680000000000000e+03,6.000000000000000e-01,1,8.140000104904175e-01,8.140000104904175e-01,0.000000000000000e+00,0.000000000000000e+00
2.364300030469609e-02,3.601500004551197e+02,2.334672872818925e-02,1.064176839275240e-07,2.333752744476171e-02,-8.495261869735909e-03,1.971170846538483e-03,1.317552277197607e-08,1.970601243278635e-03,0.000000000000000e+00,0.000000000000000e+00,0.000000000000000e+00,9.999999999997999e+01,-9.671285447699792e-15,0.000000000000000e+00,3.832533485814348e-03,0.000000000000000e+00,0.000000000000000e+00,9.840609999057763e-07,1.278000000000000e-09,4.680000000000000e+03,6.000000000000000e-01,1,8.149999976158142e-01,8.149999976158142e-01,0.000000000000000e+00,0.000000000000000e+00
2.351520195007045e-02,3.599500030301458e+02,2.321898830310254e-02,1.065980406111430e-07,2.320984104634616e-02,-8.513132722174143e-03,1.964369396803094e-03,1.319785264709103e-08,1.963803138051462e-03,0.000000000000000e+00,0.000000000000000e+00,0.000000000000000e+00,9.999999999998001e+01,-1.031602961240673e-14,0.000000000000000e+00,3.834486509211743e-03,0.000000000000000e+00,0.000000000000000e+00,9.841023993727453e-07,1.278000000000000e-09,4.680000000000000e+03,6.000000000000000e-01,1,8.159999847412109e-01,8.159999847412109e-01,0.000000000000000e+00,0.000000000000000e+00
2.338740359544482e-02,3.597500056051720e+02,2.309124787801582e-02,1.067783972947618e-07,2.308215464793062e-02,-8.531003574612376e-03,1.957567947067706e-03,1.322018252220599e-08,1.957005032824288e-03,0.000000000000000e+00,0.000000000000000e+00,0.000000000000000e+00,9.999999999998001e+01,-1.096077377711366e-14,0.000000000000000e+00,3.836439532609138e-03,0.000000000000000e+00,0.000000000000000e+00,9.841437988397140e-07,1.278000000000000e-09,4.680000000000000e+03,6.000000000000000e-01,1,8.169999718666077e-01,8.169999718666077e-01,0.000000000000000e+00,0.000000000000000e+00
2.325959762334558e-02,3.595499962592692e+02,2.296349983890842e-02,1.069587647286152e-07,2.295446063871467e-02,-8.548875492250134e-03,1.950766091929102e-03,1.324251372830236e-08,1.950206522393251e-03,0.000000000000000e+00,0.000000000000000e+00,0.000000000000000e+00,9.999999999997999e+01,-1.160555637206228e-14,0.000000000000000e+00,3.838392672417297e-03,0.000000000000000e+00,0.000000000000000e+00,9.841852007743151e-07,1.278000000000000e-09,4.680000000000000e+03,6.000000000000000e-01,1,8.180000185966492e-01,8.180000185966492e-01,0.000000000000000e+00,0.000000000000000e+00
2.313179926871995e-02,3.593499988342953e+02,2.283575941382171e-02,1.071391214122341e-07,2.282677424029913e-02,-8.566746344688366e-03,1.943964642193714e-03,1.326484360341732e-08,1.943408417166078e-03,0.000000000000000e+00,0.000000000000000e+00,0.000000000000000e+00,9.999999999998002e+01,-1.225030053676921e-14,0.000000000000000e+00,3.840345695814693e-03,0.000000000000000e+00,0.000000000000000e+00,9.842266002412839e-07,1.278000000000000e-09,4.680000000000000e+03,6.000000000000001e-01,1,8.190000057220459e-01,8.190000057220459e-01,0.000000000000000e+00,0.000000000000000e+00
2.300400091409432e-02,3.591500014093215e+02,2.270801898873500e-02,1.073194780958530e-07,2.269908784188358e-02,-8.584617197126599e-03,1.937163192458325e-03,1.328717347853228e-08,1.936610311938904e-03,0.000000000000000e+00,0.000000000000000e+00,0.000000000000000e+00,9.999999999998001e+01,-1.289504470147615e-14,0.000000000000000e+00,3.842298719212088e-03,0.000000000000000e+00,0.000000000000000e+00,9.842679997082526e-07,1.278000000000000e-09,4.680000000000000e+03,6.000000000000000e-01,1,8.199999928474426e-01,8.199999928474426e-01,0.000000000000000e+00,0.000000000000000e+00
2.287620255946868e-02,3.589500039843476e+02,2.258027856364828e-02,1.074998347794719e-07,2.257140144346804e-02,-8.602488049564833e-03,1.930361742722937e-03,1.330950335364724e-08,1.929812206711731e-03,0.000000000000000e+00,0.000000000000000e+00,0.000000000000000e+00,9.999999999998001e+01,-1.353978886618309e-14,0.000000000000000e+00,3.844251742609483e-03,0.000000000000000e+00,0.000000000000000e+00,9.843093991752214e-07,1.278000000000000e-09,4.680000000000000e+03,6.000000000000000e-01,1,8.209999799728394e-01,8.209999799728394e-01,0.000000000000000e+00,0.000000000000000e+00
2.274839658736945e-02,3.587499946384448e+02,2.245253052454088e-02,1.076802022133253e-07,2.244370743425209e-02,-8.620359967202590e-03,1.923559887584333e-03,1.333183455974361e-08,1.923013696280694e-03,0.000000000000000e+00,0.000000000000000e+00,0.000000000000000e+00,9.999999999998001e+01,-1.418457146113171e-14,0.000000000000000e+00,3.846204882417642e-03,0.000000000000000e+00,0.000000000000000e+00,9.843508011098227e-07,1.278000000000000e-09,4.680000000000000e+03,6.000000000000000e-01,1,8.220000267028809e-01,8.220000267028809e-01,0.000000000000000e+00,0.000000000000000e+00
2.262059823274382e-02,3.585499972134710e+02,2.232479009945417e-02,1.078605588969442e-07,2.231602103583655e-02,-8.638230819640824e-03,1.916758437848944e-03,1.335416443485857e-08,1.916215591053520e-03,0.000000000000000e+00,0.000000000000000e+00,0.000000000000000e+00,9.999999999998001e+01,-1.482931562583864e-14,0.000000000000000e+00,3.848157905815037e-03,0.000000000000000e+00,0.000000000000000e+00,9.843922005767915e-07,1.278000000000000e-09,4.680000000000000e+03,6.000000000000000e-01,1,8.230000138282776e-01,8.230000138282776e-01,0.000000000000000e+00,0.000000000000000e+00
2.249279987811819e-02,3.583499997884971e+02,2.219704967436746e-02,1.080409155805631e-07,2.218833463742101e-02,-8.656101672079055e-03,1.909956988113556e-03,1.337649430997353e-08,1.909417485826347e-03,0.000000000000000e+00,0.000000000000000e+00,0.000000000000000e+00,9.999999999998001e+01,-1.547405979054558e-14,0.000000000000000e+00,3.850110929212432e-03,0.000000000000000e+00,0.000000000000000e+00,9.844336000437602e-07,1.278000000000000e-09,4.680000000000000e+03,6.000000000000000e-01,1,8.240000009536743e-01,8.240000009536743e-01,0.000000000000000e+00,0.000000000000000e+00
2.236500152349255e-02,3.581500023635233e+02,2.206930924928075e-02,1.082212722641820e-07,2.206064823900546e-02,-8.673972524517289e-03,1.903155538378167e-03,1.339882418508849e-08,1.902619380599173e-03,0.000000000000000e+00,0.000000000000000e+00,0.000000000000000e+00,9.999999999998001e+01,-1.611880395525251e-14,0.000000000000000e+00,3.852063952609827e-03,0.000000000000000e+00,0.000000000000000e+00,9.844749995107292e-07,1.278000000000000e-09,4.680000000000000e+03,6.000000000000000e-01,1,8.249999880790710e-01,8.249999880790710e-01,0.000000000000000e+00,0.000000000000000e+00
2.223720316886692e-02,3.579500049385495e+02,2.194156882419404e-02,1.084016289478009e-07,2.193296184058992e-02,-8.691843376955522e-03,1.896354088642779e-03,1.342115406020345e-08,1.895821275372000e-03,0.000000000000000e+00,0.000000000000000e+00,0.000000000000000e+00,9.999999999998002e+01,-1.676354811995945e-14,0.000000000000000e+00,3.854016976007221e-03,0.000000000000000e+00,0.000000000000000e+00,9.845163989776980e-07,1.278000000000000e-09,4.680000000000000e+03,6.000000000000000e-01,1,8.259999752044678e-01,8.259999752044678e-01,0.000000000000000e+00,0.000000000000000e+00
2.210939719676769e-02,3.577499955926467e+02,2.181382078508664e-02,1.085819963816543e-07,2.180526783137397e-02,-8.709715294593280e-03,1.889552233504175e-03,1.344348526629982e-08,1.889022764940963e-03,0.000000000000000e+00,0.000000000000000e+00,0.000000000000000e+00,9.999999999998002e+01,-1.740833071490806e-14,0.000000000000000e+00,3.855970115815381e-03,0.000000000000000e+00,0.000000000000000e+00,9.845578009122990e-07,1.278000000000000e-09,4.680000000000000e+03,6.000000000000000e-01,1,8.270000219345093e-01,8.270000219345093e-01,0.000000000000000e+00,0.000000000000000e+00
2.198159884214206e-02,3.575499981676728e+02,2.168608035999992e-02,1.087623530652732e-07,2.167758143295843e-02,-8.727586147031513e-03,1.882750783768787e-03,1.346581514141478e-08,1.882224659713789e-03,0.000000000000000e+00,0.000000000000000e+00,0.000000000000000e+00,9.999999999998001e+01,-1.805307487961500e-14,0.000000000000000e+00,3.857923139212776e-03,0.000000000000000e+00,0.000000000000000e+00,9.845992003792678e-07,1.278000000000000e-09,4.680000000000000e+03,6.000000000000000e-01,1,8.280000090599060e-01,8.280000090599060e-01,0.000000000000000e+00,0.000000000000000e+00
2.185380048751642e-02,3.573500007426990e+02,2.155833993491321e-02,1.089427097488921e-07,2.154989503454289e-02,-8.745456999469745e-03,1.875949334033398e-03,1.348814501652974e-08,1.875426554486616e-03,0.000000000000000e+00,0.000000000000000e+00,0.000000000000000e+00,9.999999999998001e+01,-1.869781904432193e-14,0.000000000000000e+00,3.859876162610171e-03,0.000000000000000e+00,0.000000000000000e+00,9.846405998462366e-07,1.278000000000000e-09,4.680000000000000e+03,6.000000000000000e-01,1,8.289999961853027e-01,8.289999961853027e-01,0.000000000000000e+00,0.000000000000000e+00
2.172600213289079e-02,3.571500033177251e+02,2.143059950982650e-02,1.091230664325110e-07,2.142220863612734e-02,-8.763327851907978e-03,1.869147884298009e-03,1.351047489164470e-08,1.868628449259443e-03,0.000000000000000e+00,0.000000000000000e+00,0.000000000000000e+00,9.999999999997999e+01,-1.934256320902887e-14,0.000000000000000e+00,3.861829186007566e-03,0.000000000000000e+00,0.000000000000000e+00,9.846819993132056e-07,1.278000000000000e-09,4.680000000000000e+03,6.000000000000000e-01,1,8.299999833106995e-01,8.299999833106995e-01,0.000000000000000e+00,0.000000000000000e+00
2.159820377826516e-02,3.569500058927513e+02,2.130285908473979e-02,1.093034231161299e-07,2.129452223771180e-02,-8.781198704346212e-03,1.862346434562621e-03,1.353280476675965e-08,1.861830344032269e-03,0.000000000000000e+00,0.000000000000000e+00,0.000000000000000e+00,9.999999999997999e+01,-1.998730737373580e-14,0.000000000000000e+00,3.863782209404961e-03,0.000000000000000e+00,0.000000000000000e+00,9.847233987801743e-07,1.278000000000000e-09,4.680000000000000e+03,6.000000000000000e-01,1,8.309999704360962e-01,8.309999704360962e-01,0.000000000000000e+00,0.000000000000000e+00
2.147039780616592e-02,3.567499965468485e+02,2.117511104563239e-02,1.094837905499833e-07,2.116682822849585e-02,-8.799070621983970e-03,1.855544579424017e-03,1.355513597285603e-08,1.855031833601232e-03,0.000000000000000e+00,0.000000000000000e+00,0.000000000000000e+00,9.999999999998001e+01,-2.063208996868442e-14,0.000000000000000e+00,3.865735349213121e-03,0.000000000000000e+00,0.000000000000000e+00,9.847648007147754e-07,1.278000000000000e-09,4.680000000000000e+03,6.000000000000000e-01,1,8.320000171661377e-01,8.320000171661377e-01,0.000000000000000e+00,0.000000000000000e+00
2.134259945154029e-02,3.565499991218746e+02,2.104737062054568e-02,1.096641472336022e-07,2.103914183008030e-02,-8.816941474422203e-03,1.848743129688629e-03,1.357746584797098e-08,1.848233728374058e-03,0.000000000000000e+00,0.000000000000000e+00,0.000000000000000e+00,9.999999999998001e+01,-2.127683413339136e-14,0.000000000000000e+00,3.867688372610516e-03,0.000000000000000e+00,0.000000000000000e+00,9.848062001817442e-07,1.278000000000000e-09,4.680000000000000e+03,6.000000000000000e-01,1,8.330000042915344e-01,8.330000042915344e-01,0.000000000000000e+00,0.000000000000000e+00
2.121480109691466e-02,3.563500016969007e+02,2.091963019545896e-02,1.098445039172211e-07,2.091145543166476e-02,-8.834812326860435e-03,1.841941679953240e-03,1.359979572308594e-08,1.841435623146885e-03,0.000000000000000e+00,0.000000000000000e+00,0.000000000000000e+00,9.999999999998001e+01,-2.192157829809830e-14,0.000000000000000e+00,3.869641396007911e-03,0.000000000000000e+00,0.000000000000000e+00,9.848475996487132e-07,1.278000000000000e-09,4.680000000000000e+03,6.000000000000000e-01,1,8.339999914169312e-01,8.339999914169312e-01,0.000000000000000e+00,0.000000000000000e+00
2.108700274228902e-02,3.561500042719269e+02,2.079188977037225e-02,1.100248606008400e-07,2.078376903324922e-02,-8.852683179298666e-03,1.835140230217852e-03,1.362212559820090e-08,1.834637517919712e-03,0.000000000000000e+00,0.000000000000000e+00,0.000000000000000e+00,9.999999999998001e+01,-2.256632246280523e-14,0.000000000000000e+00,3.871594419405306e-03,0.000000000000000e+00,0.000000000000000e+00,9.848889991156819e-07,1.278000000000000e-09,4.680000000000000e+03,6.000000000000000e-01,1,8.349999785423279e-01,8.349999785423279e-01,0.000000000000000e+00,0.000000000000000e+00
2.095919677018979e-02,3.559499949260241e+02,2.066414173126485e-02,1.102052280346934e-07,2.065607502403327e-02,-8.870555096936426e-03,1.828338375079248e-03,1.364445680429727e-08,1.827839007488674e-03,0.000000000000000e+00,0.000000000000000e+00,0.000000000000000e+00,9.999999999998001e+01,-2.321110505775384e-14,0.000000000000000e+00,3.873547559213465e-03,0.000000000000000e+00,0.000000000000000e+00,9.849304010502830e-07,1.278000000000000e-09,4.680000000000000e+03,6.000000000000000e-01,1,8.360000252723694e-01,8.360000252723694e-01,0.000000000000000e+00,0.000000000000000e+00
2.083139841556416e-02,3.557499975010503e+02,2.053640130617814e-02,1.103855847183123e-07,2.052838862561773e-02,-8.888425949374659e-03,1.821536925343859e-03,1.366678667941223e-08,1.821040902261501e-03,0.000000000000000e+00,0.000000000000000e+00,0.000000000000000e+00,9.999999999998001e+01,-2.385584922246078e-14,0.000000000000000e+00,3.875500582610860e-03,0.000000000000000e+00,0.000000000000000e+00,9.849718005172518e-07,1.278000000000000e-09,4.680000000000000e+03,6.000000000000000e-01,1,8.370000123977661e-01,8.370000123977661e-01,0.000000000000000e+00,0.000000000000000e+00
2.070360006093852e-02,3.555500000760764e+02,2.040866088109142e-02,1.105659414019312e-07,2.040070222720218e-02,-8.906296801812891e-03,1.814735475608471e-03,1.368911655452719e-08,1.814242797034327e-03,0.000000000000000e+00,0.000000000000000e+00,0.000000000000000e+00,9.999999999998001e+01,-2.450059338716772e-14,0.000000000000000e+00,3.877453606008255e-03,0.000000000000000e+00,0.000000000000000e+00,9.850131999842205e-07,1.278000000000000e-09,4.680000000000000e+03,6.000000000000000e-01,1,8.379999995231628e-01,8.379999995231628e-01,0.000000000000000e+00,0.000000000000000e+00
2.057580170631289e-02,3.553500026511026e+02,2.028092045600471e-02,1.107462980855501e-07,2.027301582878664e-02,-8.924167654251124e-03,1.807934025873082e-03,1.371144642964215e-08,1.807444691807154e-03,0.000000000000000e+00,0.000000000000000e+00,0.000000000000000e+00,9.999999999998001e+01,-2.514533755187466e-14,0.000000000000000e+00,3.879406629405650e-03,0.000000000000000e+00,0.000000000000000e+00,9.850545994511895e-07,1.278000000000000e-09,4.680000000000000e+03,6.000000000000000e-01,1,8.389999866485596e-01,8.389999866485596e-01,0.000000000000000e+00,0.000000000000000e+00
2.044800335168726e-02,3.551500052261287e+02,2.015318003091800e-02,1.109266547691690e-07,2.014532943037110e-02,-8.942038506689358e-03,1.801132576137694e-03,1.373377630475711e-08,1.800646586579981e-03,0.000000000000000e+00,0.000000000000000e+00,0.000000000000000e+00,9.999999999998001e+01,-2.579008171658159e-14,0.000000000000000e+00,3.881359652803045e-03,0.000000000000000e+00,0.000000000000000e+00,9.850959989181583e-07,1.278000000000000e-09,4.680000000000000e+03,6.000000000000000e-01,1,8.399999737739563e-01,8.399999737739563e-01,0.000000000000000e+00,0.000000000000000e+00
2.032019737958803e-02,3.549499958802334e+02,2.002331576490679e-02,1.090788552071106e-07,2.001550694967452e-02,-8.960205639384348e-03,1.794217991694316e-03,1.350500112088316e-08,1.793734588846552e-03,0.000000000000000e+00,0.000000000000000e+00,0.000000000000000e+00,9.999999999997999e+01,-2.731717525013081e-14,0.000000000000000e+00,3.883040540969839e-03,0.000000000000000e+00,0.000000000000000e+00,9.851374008527594e-07,1.278000000000000e-09,4.680000000000000e+03,6.000000000000000e-01,1,8.410000205039978e-01,8.410000205039978e-01,0.000000000000000e+00,0.000000000000000e+00
2.019239902496239e-02,3.547499984552671e+02,1.989345918355236e-02,1.072311125916182e-07,1.988569215082315e-02,-8.978371697026031e-03,1.787303816416869e-03,1.327623298753641e-08,1.786823000105004e-03,0.000000000000000e+00,0.000000000000000e+00,0.000000000000000e+00,9.999999999998001e+01,-2.884420090338441e-14,0.000000000000000e+00,3.884721321813170e-03,0.000000000000000e+00,0.000000000000000e+00,9.851788003197283e-07,1.278000000000000e-09,4.680000000000000e+03,6.000000000000000e-01,1,8.420000076293945e-01,8.420000076293945e-01,0.000000000000000e+00,0.000000000000000e+00
2.006460067033676e-02,3.545500010303007e+02,1.976360260219792e-02,1.053833699761257e-07,1.975587735197177e-02,-8.996537754667714e-03,1.780389641139420e-03,1.304746485418966e-08,1.779911411363454e-03,0.000000000000000e+00,0.000000000000000e+00,0.000000000000000e+00,9.999999999998001e+01,-3.037122655663800e-14,0.000000000000000e+00,3.886402102656500e-03,0.000000000000000e+00,0.000000000000000e+00,9.852201997866971e-07,1.278000000000000e-09,4.680000000000000e+03,6.000000000000000e-01,1,8.429999947547913e-01,8.429999947547913e-01,0.000000000000000e+00,0.000000000000000e+00
1.993680231571113e-02,3.543500036053344e+02,1.963374602084349e-02,1.035356273606332e-07,1.962606255312040e-02,-9.014703812309396e-03,1.773475465861972e-03,1.281869672084291e-08,1.772999822621905e-03,0.000000000000000e+00,0.000000000000000e+00,0.000000000000000e+00,9.999999999997999e+01,-3.189825220989160e-14,0.000000000000000e+00,3.888082883499831e-03,0.000000000000000e+00,0.000000000000000e+00,9.852615992536659e-07,1.278000000000000e-09,4.680000000000000e+03,6.000000000000000e-01,1,8.439999818801880e-01,8.439999818801880e-01,0.000000000000000e+00,0.000000000000000e+00
1.980899634361189e-02,3.541499942594391e+02,1.950388169933400e-02,1.016877746096805e-07,1.949624001660443e-02,-9.032870952746434e-03,1.766560878462257e-03,1.258991495167728e-08,1.766087821912260e-03,0.000000000000000e+00,0.000000000000000e+00,0.000000000000000e+00,9.999999999997999e+01,-3.342536888213864e-14,0.000000000000000e+00,3.889763764526796e-03,0.000000000000000e+00,0.000000000000000e+00,9.853030011882669e-07,1.278000000000000e-09,4.680000000000000e+03,6.000000000000000e-01,1,8.450000286102295e-01,8.450000286102295e-01,0.000000000000000e+00,0.000000000000000e+00
1.968119798898626e-02,3.539499968344728e+02,1.937402511797957e-02,9.984003199418805e-08,1.936642521775306e-02,-9.051037010388117e-03,1.759646703184809e-03,1.236114681833053e-08,1.759176233170712e-03,0.000000000000000e+00,0.000000000000000e+00,0.000000000000000e+00,9.999999999998001e+01,-3.495239453539224e-14,0.000000000000000e+00,3.891444545370127e-03,0.000000000000000e+00,0.000000000000000e+00,9.853444006552357e-07,1.278000000000000e-09,4.680000000000000e+03,6.000000000000000e-01,1,8.460000157356262e-01,8.460000157356262e-01,0.000000000000000e+00,0.000000000000000e+00
1.955339963436063e-02,3.537499994095064e+02,1.924416853662513e-02,9.799228937869558e-08,1.923661041890169e-02,-9.069203068029800e-03,1.752732527907361e-03,1.213237868498378e-08,1.752264644429162e-03,0.000000000000000e+00,0.000000000000000e+00,0.000000000000000e+00,9.999999999998001e+01,-3.647942018864583e-14,0.000000000000000e+00,3.893125326213458e-03,0.000000000000000e+00,0.000000000000000e+00,9.853858001222047e-07,1.278000000000000e-09,4.680000000000000e+03,6.000000000000000e-01,1,8.470000028610229e-01,8.470000028610229e-01,0.000000000000000e+00,0.000000000000000e+00
1.942560127973499e-02,3.535500019845401e+02,1.911431195527070e-02,9.614454676320309e-08,1.910679562005031e-02,-9.087369125671483e-03,1.745818352629913e-03,1.190361055163703e-08,1.745353055687613e-03,0.000000000000000e+00,0.000000000000000e+00,0.000000000000000e+00,9.999999999997999e+01,-3.800644584189943e-14,0.000000000000000e+00,3.894806107056788e-03,0.000000000000000e+00,0.000000000000000e+00,9.854271995891735e-07,1.278000000000000e-09,4.680000000000000e+03,5.999999999999999e-01,1,8.479999899864197e-01,8.479999899864197e-01,0.000000000000000e+00,0.000000000000000e+00
1.929780292510936e-02,3.533500045595737e+02,1.898445537391627e-02,9.429680414771063e-08,1.897698082119894e-02,-9.105535183313168e-03,1.738904177352465e-03,1.167484241829028e-08,1.738441466946065e-03,0.000000000000000e+00,0.000000000000000e+00,0.000000000000000e+00,9.999999999998001e+01,-3.953347149515302e-14,0.000000000000000e+00,3.896486887900119e-03,0.000000000000000e+00,0.000000000000000e+00,9.854685990561422e-07,1.278000000000000e-09,4.680000000000000e+03,6.000000000000000e-01,1,8.489999771118164e-01,8.489999771118164e-01,0.000000000000000e+00,0.000000000000000e+00
1.916999695301013e-02,3.531499952136784e+02,1.885459105240678e-02,9.244895139675795e-08,1.884715828468298e-02,-9.123702323750205e-03,1.731989589952750e-03,1.144606064912465e-08,1.731529466236420e-03,0.000000000000000e+00,0.000000000000000e+00,0.000000000000000e+00,9.999999999998001e+01,-4.106058816740007e-14,0.000000000000000e+00,3.898167768927084e-03,0.000000000000000e+00,0.000000000000000e+00,9.855100009907435e-07,1.278000000000000e-09,4.680000000000000e+03,6.000000000000000e-01,1,8.500000238418579e-01,8.500000238418579e-01,0.000000000000000e+00,0.000000000000000e+00
1.904219859838450e-02,3.529499977887120e+02,1.872473447105234e-02,9.060120878126548e-08,1.871734348583160e-02,-9.141868381391888e-03,1.725075414675302e-03,1.121729251577790e-08,1.724617877494871e-03,0.000000000000000e+00,0.000000000000000e+00,0.000000000000000e+00,9.999999999997999e+01,-4.258761382065366e-14,0.000000000000000e+00,3.899848549770415e-03,0.000000000000000e+00,0.000000000000000e+00,9.855514004577121e-07,1.278000000000000e-09,4.680000000000000e+03,5.999999999999999e-01,1,8.510000109672546e-01,8.510000109672546e-01,0.000000000000000e+00,0.000000000000000e+00
1.891440024375887e-02,3.527500003637458e+02,1.859487788969791e-02,8.875346616577300e-08,1.858752868698023e-02,-9.160034439033571e-03,1.718161239397854e-03,1.098852438243115e-08,1.717706288753322e-03,0.000000000000000e+00,0.000000000000000e+00,0.000000000000000e+00,9.999999999998001e+01,-4.411463947390726e-14,0.000000000000000e+00,3.901529330613746e-03,0.000000000000000e+00,0.000000000000000e+00,9.855927999246811e-07,1.278000000000000e-09,4.680000000000000e+03,6.000000000000000e-01,1,8.519999980926514e-01,8.519999980926514e-01,0.000000000000000e+00,0.000000000000000e+00
1.878660188913323e-02,3.525500029387794e+02,1.846502130834348e-02,8.690572355028052e-08,1.845771388812886e-02,-9.178200496675254e-03,1.711247064120406e-03,1.075975624908440e-08,1.710794700011773e-03,0.000000000000000e+00,0.000000000000000e+00,0.000000000000000e+00,9.999999999998001e+01,-4.564166512716085e-14,0.000000000000000e+00,3.903210111457076e-03,0.000000000000000e+00,0.000000000000000e+00,9.856341993916498e-07,1.278000000000000e-09,4.680000000000000e+03,6.000000000000000e-01,1,8.529999852180481e-01,8.529999852180481e-01,0.000000000000000e+00,0.000000000000000e+00
1.865880353450760e-02,3.523500055138130e+02,1.833516472698905e-02,8.505798093478804e-08,1.832789908927748e-02,-9.196366554316937e-03,1.704332888842958e-03,1.053098811573765e-08,1.703883111270223e-03,0.000000000000000e+00,0.000000000000000e+00,0.000000000000000e+00,9.999999999998001e+01,-4.716869078041444e-14,0.000000000000000e+00,3.904890892300407e-03,0.000000000000000e+00,0.000000000000000e+00,9.856755988586186e-07,1.278000000000000e-09,4.680000000000000e+03,5.999999999999999e-01,1,8.539999723434448e-01,8.539999723434448e-01,0.000000000000000e+00,0.000000000000000e+00
1.853099756240837e-02,3.521499961679177e+02,1.820530040547956e-02,8.321012818383539e-08,1.819807655276152e-02,-9.214533694753974e-03,1.697418301443243e-03,1.030220634657203e-08,1.696971110560579e-03,0.000000000000000e+00,0.000000000000000e+00,0.000000000000000e+00,9.999999999998002e+01,-4.869580745266150e-14,0.000000000000000e+00,3.906571773327373e-03,0.000000000000000e+00,0.000000000000000e+00,9.857170007932199e-07,1.278000000000000e-09,4.680000000000000e+03,6.000000000000000e-01,1,8.550000190734863e-01,8.550000190734863e-01,0.000000000000000e+00,0.000000000000000e+00
1.840319920778273e-02,3.519499987429514e+02,1.807544382412512e-02,8.136238556834290e-08,1.806826175391014e-02,-9.232699752395657e-03,1.690504126165795e-03,1.007343821322528e-08,1.690059521819030e-03,0.000000000000000e+00,0.000000000000000e+00,0.000000000000000e+00,9.999999999998001e+01,-5.022283310591509e-14,0.000000000000000e+00,3.908252554170703e-03,0.000000000000000e+00,0.000000000000000e+00,9.857584002601886e-07,1.278000000000000e-09,4.680000000000000e+03,6.000000000000000e-01,1,8.560000061988831e-01,8.560000061988831e-01,0.000000000000000e+00,0.000000000000000e+00
1.827540085315710e-02,3.517500013179850e+02,1.794558724277069e-02,7.951464295285042e-08,1.793844695505877e-02,-9.250865810037340e-03,1.683589950888347e-03,9.844670079878523e-09,1.683147933077481e-03,0.000000000000000e+00,0.000000000000000e+00,0.000000000000000e+00,9.999999999997999e+01,-5.174985875916867e-14,0.000000000000000e+00,3.909933335014034e-03,0.000000000000000e+00,0.000000000000000e+00,9.857997997271574e-07,1.278000000000000e-09,4.680000000000000e+03,5.999999999999999e-01,1,8.569999933242798e-01,8.569999933242798e-01,0.000000000000000e+00,0.000000000000000e+00
1.814760249853147e-02,3.515500038930187e+02,1.781573066141626e-02,7.766690033735796e-08,1.780863215620740e-02,-9.269031867679023e-03,1.676675775610899e-03,9.615901946531777e-09,1.676236344335932e-03,0.000000000000000e+00,0.000000000000000e+00,0.000000000000000e+00,9.999999999998002e+01,-5.327688441242228e-14,0.000000000000000e+00,3.911614115857365e-03,0.000000000000000e+00,0.000000000000000e+00,9.858411991941264e-07,1.278000000000000e-09,4.680000000000000e+03,6.000000000000000e-01,1,8.579999804496765e-01,8.579999804496765e-01,0.000000000000000e+00,0.000000000000000e+00
1.801979652643224e-02,3.513499945471234e+02,1.768586633990677e-02,7.581904758640529e-08,1.767880961969143e-02,-9.287199008116059e-03,1.669761188211184e-03,9.387120177366145e-09,1.669324343626287e-03,0.000000000000000e+00,0.000000000000000e+00,0.000000000000000e+00,9.999999999998001e+01,-5.480400108466932e-14,0.000000000000000e+00,3.913294996884331e-03,0.000000000000000e+00,0.000000000000000e+00,9.858826011287275e-07,1.278000000000000e-09,4.680000000000000e+03,6.000000000000000e-01,1,8.590000271797180e-01,8.590000271797180e-01,0.000000000000000e+00,0.000000000000000e+00
1.789199817180660e-02,3.511499971221571e+02,1.755600975855234e-02,7.397130497091281e-08,1.754899482084006e-02,-9.305365065757742e-03,1.662847012933736e-03,9.158352044019395e-09,1.662412754884738e-03,0.000000000000000e+00,0.000000000000000e+00,0.000000000000000e+00,9.999999999998001e+01,-5.633102673792292e-14,0.000000000000000e+00,3.914975777727661e-03,0.000000000000000e+00,0.000000000000000e+00,9.859240005956962e-07,1.278000000000000e-09,4.680000000000000e+03,6.000000000000000e-01,1,8.600000143051147e-01,8.600000143051147e-01,0.000000000000000e+00,0.000000000000000e+00
1.776419981718097e-02,3.509499996971907e+02,1.742615317719790e-02,7.212356235542034e-08,1.741918002198869e-02,-9.323531123399426e-03,1.655932837656288e-03,8.929583910672647e-09,1.655501166143189e-03,0.000000000000000e+00,0.000000000000000e+00,0.000000000000000e+00,9.999999999998001e+01,-5.785805239117650e-14,0.000000000000000e+00,3.916656558570992e-03,0.000000000000000e+00,0.000000000000000e+00,9.859654000626650e-07,1.278000000000000e-09,4.680000000000000e+03,6.000000000000000e-01,1,8.610000014305115e-01,8.610000014305115e-01,0.000000000000000e+00,0.000000000000000e+00
1.763640146255534e-02,3.507500022722244e+02,1.729629659584347e-02,7.027581973992786e-08,1.728936522313732e-02,-9.341697181041109e-03,1.649018662378840e-03,8.700815777325896e-09,1.648589577401640e-03,0.000000000000000e+00,0.000000000000000e+00,0.000000000000000e+00,9.999999999998001e+01,-5.938507804443010e-14,0.000000000000000e+00,3.918337339414322e-03,0.000000000000000e+00,0.000000000000000e+00,9.860067995296338e-07,1.278000000000000e-09,4.680000000000000e+03,6.000000000000000e-01,1,8.619999885559082e-01,8.619999885559082e-01,0.000000000000000e+00,0.000000000000000e+00
1.750860310792970e-02,3.505500048472580e+02,1.716644001448903e-02,6.842807712443538e-08,1.715955042428594e-02,-9.359863238682792e-03,1.642104487101392e-03,8.472047643979147e-09,1.641677988660091e-03,0.000000000000000e+00,0.000000000000000e+00,0.000000000000000e+00,9.999999999998001e+01,-6.091210369768370e-14,0.000000000000000e+00,3.920018120257653e-03,0.000000000000000e+00,0.000000000000000e+00,9.860481989966025e-07,1.278000000000000e-09,4.680000000000000e+03,6.000000000000000e-01,1,8.629999756813049e-01,8.629999756813049e-01,0.000000000000000e+00,0.000000000000000e+00
1.738079713583047e-02,3.503499955013627e+02,1.703657569297955e-02,6.658022437348272e-08,1.702972788776998e-02,-9.378030379119828e-03,1.635189899701677e-03,8.243265874813518e-09,1.634765987950446e-03,0.000000000000000e+00,0.000000000000000e+00,0.000000000000000e+00,9.999999999998001e+01,-6.243922036993074e-14,0.000000000000000e+00,3.921699001284618e-03,0.000000000000000e+00,0.000000000000000e+00,9.860896009312036e-07,1.278000000000000e-09,4.680000000000000e+03,6.000000000000000e-01,1,8.640000224113464e-01,8.640000224113464e-01,0.000000000000000e+00,0.000000000000000e+00
1.725299878120484e-02,3.501499980763964e+02,1.690671911162511e-02,6.473248175799023e-08,1.689991308891860e-02,-9.396196436761511e-03,1.628275724424229e-03,8.014497741466767e-09,1.627854399208897e-03,0.000000000000000e+00,0.000000000000000e+00,0.000000000000000e+00,9.999999999998001e+01,-6.396624602318434e-14,0.000000000000000e+00,3.923379782127949e-03,0.000000000000000e+00,0.000000000000000e+00,9.861310003981726e-07,1.278000000000000e-09,4.680000000000000e+03,6.000000000000000e-01,1,8.650000095367432e-01,8.650000095367432e-01,0.000000000000000e+00,0.000000000000000e+00
1.712520042657921e-02,3.499500006514301e+02,1.677686253027068e-02,6.288473914249776e-08,1.677009829006723e-02,-9.414362494403196e-03,1.621361549146781e-03,7.785729608120018e-09,1.620942810467348e-03,0.000000000000000e+00,0.000000000000000e+00,0.000000000000000e+00,9.999999999998001e+01,-6.549327167643793e-14,0.000000000000000e+00,3.925060562971280e-03,0.000000000000000e+00,0.000000000000000e+00,9.861723998651416e-07,1.278000000000000e-09,4.680000000000000e+03,6.000000000000000e-01,1,8.659999966621399e-01,8.659999966621399e-01,0.000000000000000e+00,0.000000000000000e+00
1.699740207195358e-02,3.497500032264637e+02,1.664700594891625e-02,6.103699652700528e-08,1.664028349121585e-02,-9.432528552044878e-03,1.614447373869333e-03,7.556961474773268e-09,1.614031221725799e-03,0.000000000000000e+00,0.000000000000000e+00,0.000000000000000e+00,9.999999999998001e+01,-6.702029732969152e-14,0.000000000000000e+00,3.926741343814611e-03,0.000000000000000e+00,0.000000000000000e+00,9.862137993321103e-07,1.278000000000000e-09,4.680000000000000e+03,6.000000000000000e-01,1,8.669999837875366e-01,8.669999837875366e-01,0.000000000000000e+00,0.000000000000000e+00
1.686960371732794e-02,3.495500058014974e+02,1.651714936756182e-02,5.918925391151281e-08,1.651046869236448e-02,-9.450694609686562e-03,1.607533198591885e-03,7.328193341426519e-09,1.607119632984250e-03,0.000000000000000e+00,0.000000000000000e+00,0.000000000000000e+00,9.999999999998001e+01,-6.854732298294512e-14,0.000000000000000e+00,3.928422124657941e-03,0.000000000000000e+00,0.000000000000000e+00,9.862551987990791e-07,1.278000000000000e-09,4.680000000000000e+03,6.000000000000000e-01,1,8.679999709129333e-01,8.679999709129333e-01,0.000000000000000e+00,0.000000000000000e+00
1.674179774522871e-02,3.493499964556020e+02,1.638728504605232e-02,5.734140116056015e-08,1.638064615584852e-02,-9.468861750123599e-03,1.600618611192170e-03,7.099411572260889e-09,1.600207632274605e-03,0.000000000000000e+00,0.000000000000000e+00,0.000000000000000e+00,9.999999999998001e+01,-7.007443965519217e-14,0.000000000000000e+00,3.930103005684906e-03,0.000000000000000e+00,0.000000000000000e+00,9.862966007336802e-07,1.278000000000000e-09,4.680000000000000e+03,6.000000000000000e-01,1,8.690000176429749e-01,8.690000176429749e-01,0.000000000000000e+00,0.000000000000000e+00
1.661399939060308e-02,3.491499990306357e+02,1.625742846469789e-02,5.549365854506766e-08,1.625083135699714e-02,-9.487027807765282e-03,1.593704435914722e-03,6.870643438914139e-09,1.593296043533056e-03,0.000000000000000e+00,0.000000000000000e+00,0.000000000000000e+00,9.999999999998001e+01,-7.160146530844576e-14,0.000000000000000e+00,3.931783786528237e-03,0.000000000000000e+00,0.000000000000000e+00,9.863380002006490e-07,1.278000000000000e-09,4.680000000000000e+03,6.000000000000000e-01,1,8.700000047683716e-01,8.700000047683716e-01,0.000000000000000e+00,0.000000000000000e+00
1.648620103597745e-02,3.489500016056693e+02,1.612757188334346e-02,5.364591592957519e-08,1.612101655814577e-02,-9.505193865406965e-03,1.586790260637274e-03,6.641875305567390e-09,1.586384454791507e-03,0.000000000000000e+00,0.000000000000000e+00,0.000000000000000e+00,9.999999999998001e+01,-7.312849096169935e-14,0.000000000000000e+00,3.933464567371567e-03,0.000000000000000e+00,0.000000000000000e+00,9.863793996676177e-07,1.278000000000000e-09,4.680000000000000e+03,6.000000000000000e-01,1,8.709999918937683e-01,8.709999918937683e-01,0.000000000000000e+00,0.000000000000000e+00
1.635840268135181e-02,3.487500041807031e+02,1.599771530198903e-02,5.179817331408271e-08,1.599120175929439e-02,-9.523359923048648e-03,1.579876085359826e-03,6.413107172220640e-09,1.579472866049958e-03,0.000000000000000e+00,0.000000000000000e+00,0.000000000000000e+00,9.999999999998001e+01,-7.465551661495294e-14,0.000000000000000e+00,3.935145348214899e-03,0.000000000000000e+00,0.000000000000000e+00,9.864207991345867e-07,1.278000000000000e-09,4.680000000000000e+03,6.000000000000000e-01,1,8.719999790191650e-01,8.719999790191650e-01,0.000000000000000e+00,0.000000000000000e+00
1.623059670925258e-02,3.485499948348077e+02,1.586785098047954e-02,4.995032056313006e-08,1.586137922277843e-02,-9.541527063485685e-03,1.572961497960111e-03,6.184325403055012e-09,1.572560865340313e-03,0.000000000000000e+00,0.000000000000000e+00,0.000000000000000e+00,9.999999999998001e+01,-7.618263328719999e-14,0.000000000000000e+00,3.936826229241864e-03,0.000000000000000e+00,0.000000000000000e+00,9.864622010691878e-07,1.278000000000000e-09,4.680000000000000e+03,6.000000000000000e-01,1,8.730000257492065e-01,8.730000257492065e-01,0.000000000000000e+00,0.000000000000000e+00
1.610279835462695e-02,3.483499974098414e+02,1.573799439912511e-02,4.810257794763758e-08,1.573156442392706e-02,-9.559693121127368e-03,1.566047322682663e-03,5.955557269708262e-09,1.565649276598764e-03,0.000000000000000e+00,0.000000000000000e+00,0.000000000000000e+00,9.999999999998002e+01,-7.770965894045358e-14,0.000000000000000e+00,3.938507010085195e-03,0.000000000000000e+00,0.000000000000000e+00,9.865036005361565e-07,1.278000000000000e-09,4.680000000000000e+03,6.000000000000000e-01,1,8.740000128746033e-01,8.740000128746033e-01,0.000000000000000e+00,0.000000000000000e+00
1.597500000000131e-02,3.481499999848750e+02,1.560813781777067e-02,4.625483533214510e-08,1.560174962507568e-02,-9.577859178769051e-03,1.559133147405214e-03,5.726789136361513e-09,1.558737687857215e-03,0.000000000000000e+00,0.000000000000000e+00,0.000000000000000e+00,9.999999999998002e+01,-7.923668459370717e-14,0.000000000000000e+00,3.940187790928525e-03,0.000000000000000e+00,0.000000000000000e+00,9.865450000031253e-07,1.278000000000000e-09,4.680000000000000e+03,6.000000000000000e-01,1,8.750000000000000e-01,8.750000000000000e-01,0.000000000000000e+00,0.000000000000000e+00
1.584720164537568e-02,3.479500025599087e+02,1.547828123641624e-02,4.440709271665262e-08,1.547193482622431e-02,-9.596025236410736e-03,1.552218972127766e-03,5.498021003014762e-09,1.551826099115666e-03,0.000000000000000e+00,0.000000000000000e+00,0.000000000000000e+00,9.999999999998002e+01,-8.076371024696077e-14,0.000000000000000e+00,3.941868571771856e-03,0.000000000000000e+00,0.000000000000000e+00,9.865863994700943e-07,1.278000000000000e-09,4.680000000000000e+03,6.000000000000000e-01,1,8.759999871253967e-01,8.759999871253967e-01,0.000000000000000e+00,0.000000000000000e+00
1.571940329075005e-02,3.477500051349423e+02,1.534842465506180e-02,4.255935010116014e-08,1.534212002737294e-02,-9.614191294052417e-03,1.545304796850319e-03,5.269252869668013e-09,1.544914510374117e-03,0.000000000000000e+00,0.000000000000000e+00,0.000000000000000e+00,9.999999999997999e+01,-8.229073590021437e-14,0.000000000000000e+00,3.943549352615186e-03,0.000000000000000e+00,0.000000000000000e+00,9.866277989370631e-07,1.278000000000000e-09,4.680000000000000e+03,6.000000000000000e-01,1,8.769999742507935e-01,8.769999742507935e-01,0.000000000000000e+00,0.000000000000000e+00
1.559159731865082e-02,3.475499957890470e+02,1.521856033355232e-02,4.071149735020748e-08,1.521229749085697e-02,-9.632358434489454e-03,1.538390209450603e-03,5.040471100502383e-09,1.538002509664472e-03,0.000000000000000e+00,0.000000000000000e+00,0.000000000000000e+00,9.999999999997999e+01,-8.381785257246143e-14,0.000000000000000e+00,3.945230233642153e-03,0.000000000000000e+00,0.000000000000000e+00,9.866692008716641e-07,1.278000000000000e-09,4.680000000000000e+03,6.000000000000000e-01,1,8.780000209808350e-01,8.780000209808350e-01,0.000000000000000e+00,0.000000000000000e+00
1.546379896402518e-02,3.473499983640807e+02,1.508870375219788e-02,3.886375473471499e-08,1.508248269200560e-02,-9.650524492131139e-03,1.531476034173155e-03,4.811702967155632e-09,1.531090920922923e-03,0.000000000000000e+00,0.000000000000000e+00,0.000000000000000e+00,9.999999999998001e+01,-8.534487822571501e-14,0.000000000000000e+00,3.946911014485483e-03,0.000000000000000e+00,0.000000000000000e+00,9.867106003386329e-07,1.278000000000000e-09,4.680000000000000e+03,6.000000000000000e-01,1,8.790000081062317e-01,8.790000081062317e-01,0.000000000000000e+00,0.000000000000000e+00
1.533600060939955e-02,3.471500009391143e+02,1.495884717084345e-02,3.701601211922252e-08,1.495266789315423e-02,-9.668690549772822e-03,1.524561858895707e-03,4.582934833808884e-09,1.524179332181374e-03,0.000000000000000e+00,0.000000000000000e+00,0.000000000000000e+00,9.999999999998001e+01,-8.687190387896860e-14,0.000000000000000e+00,3.948591795328813e-03,0.000000000000000e+00,0.000000000000000e+00,9.867519998056019e-07,1.278000000000000e-09,4.680000000000000e+03,6.000000000000000e-01,1,8.799999952316284e-01,8.799999952316284e-01,0.000000000000000e+00,0.000000000000000e+00
1.520820225477392e-02,3.469500035141530e+02,1.483410171113583e-02,3.631318647120734e-08,1.482794962942502e-02,-9.686140491244633e-03,1.517919755385875e-03,4.495918325006982e-09,1.517538912232097e-03,0.000000000000000e+00,0.000000000000000e+00,0.000000000000000e+00,9.999999999998001e+01,-8.510735659660814e-14,0.000000000000000e+00,3.950000354055006e-03,0.000000000000000e+00,0.000000000000000e+00,9.867933992725681e-07,1.278000000000000e-09,4.680000000000001e+03,6.000000000000000e-01,1,8.809999823570251e-01,8.809999823570251e-01,0.000000000000000e+00,0.000000000000000e+00
1.508039628267468e-02,3.467499941682627e+02,1.470934884029574e-02,3.561032439044750e-08,1.470322395611481e-02,-9.703591469412642e-03,1.511277257268083e-03,4.408897305484313e-09,1.510898097770904e-03,0.000000000000000e+00,0.000000000000000e+00,0.000000000000000e+00,9.999999999998001e+01,-8.334268844201175e-14,0.000000000000000e+00,3.951408995440847e-03,0.000000000000000e+00,0.000000000000000e+00,9.868348012071666e-07,1.278000000000000e-09,4.680000000000000e+03,6.000000000000000e-01,1,8.820000290870667e-01,8.820000290870667e-01,0.000000000000000e+00,0.000000000000000e+00
1.495259792804905e-02,3.465499967433013e+02,1.458460340495875e-02,3.490750420157471e-08,1.457850571668667e-02,-9.721041407469903e-03,1.504635155055532e-03,4.321881472576231e-09,1.504257679114602e-03,0.000000000000000e+00,0.000000000000000e+00,0.000000000000000e+00,9.999999999998001e+01,-8.157812546491892e-14,0.000000000000000e+00,3.952817552869042e-03,0.000000000000000e+00,0.000000000000000e+00,9.868762006741331e-07,1.278000000000000e-09,4.680000000000000e+03,6.000000000000000e-01,1,8.830000162124634e-01,8.830000162124634e-01,0.000000000000000e+00,0.000000000000000e+00
1.482479957342342e-02,3.463499993183400e+02,1.445985796962175e-02,3.420468401270191e-08,1.445378747725854e-02,-9.738491345527163e-03,1.497993052842980e-03,4.234865639668149e-09,1.497617260458300e-03,0.000000000000000e+00,0.000000000000000e+00,0.000000000000000e+00,9.999999999998002e+01,-7.981356248782610e-14,0.000000000000000e+00,3.954226110297237e-03,0.000000000000000e+00,0.000000000000000e+00,9.869176001410993e-07,1.278000000000000e-09,4.680000000000000e+03,6.000000000000000e-01,1,8.840000033378601e-01,8.840000033378601e-01,0.000000000000000e+00,0.000000000000000e+00
1.469700121879779e-02,3.461500018933787e+02,1.433511253428476e-02,3.350186382382912e-08,1.432906923783040e-02,-9.755941283584420e-03,1.491350950630429e-03,4.147849806760068e-09,1.490976841801999e-03,0.000000000000000e+00,0.000000000000000e+00,0.000000000000000e+00,9.999999999998001e+01,-7.804899951073328e-14,0.000000000000000e+00,3.955634667725432e-03,0.000000000000000e+00,0.000000000000000e+00,9.869589996080657e-07,1.278000000000000e-09,4.680000000000000e+03,6.000000000000000e-01,1,8.849999904632568e-01,8.849999904632568e-01,0.000000000000000e+00,0.000000000000000e+00
1.456920286417215e-02,3.459500044684173e+02,1.421036709894776e-02,3.279904363495633e-08,1.420435099840226e-02,-9.773391221641680e-03,1.484708848417877e-03,4.060833973851985e-09,1.484336423145696e-03,0.000000000000000e+00,0.000000000000000e+00,0.000000000000000e+00,9.999999999998001e+01,-7.628443653364046e-14,0.000000000000000e+00,3.957043225153626e-03,0.000000000000000e+00,0.000000000000000e+00,9.870003990750320e-07,1.278000000000000e-09,4.680000000000000e+03,6.000000000000000e-01,1,8.859999775886536e-01,8.859999775886536e-01,0.000000000000000e+00,0.000000000000000e+00
1.444139689207292e-02,3.457499951225270e+02,1.408561422810767e-02,3.209618155419650e-08,1.407962532509206e-02,-9.790842199809691e-03,1.478066350300086e-03,3.973812954329317e-09,1.477695608684503e-03,0.000000000000000e+00,0.000000000000000e+00,0.000000000000000e+00,9.999999999998001e+01,-7.451976837904408e-14,0.000000000000000e+00,3.958451866539468e-03,0.000000000000000e+00,0.000000000000000e+00,9.870418010096307e-07,1.278000000000000e-09,4.680000000000000e+03,6.000000000000000e-01,1,8.870000243186951e-01,8.870000243186951e-01,0.000000000000000e+00,0.000000000000000e+00
1.431359853744729e-02,3.455499976975657e+02,1.396086879277068e-02,3.139336136532370e-08,1.395490708566392e-02,-9.808292137866950e-03,1.471424248087534e-03,3.886797121421236e-09,1.471055190028202e-03,0.000000000000000e+00,0.000000000000000e+00,0.000000000000000e+00,9.999999999998001e+01,-7.275520540195126e-14,0.000000000000000e+00,3.959860423967663e-03,0.000000000000000e+00,0.000000000000000e+00,9.870832004765969e-07,1.278000000000000e-09,4.680000000000000e+03,6.000000000000000e-01,1,8.880000114440918e-01,8.880000114440918e-01,0.000000000000000e+00,0.000000000000000e+00
1.418580018282165e-02,3.453500002726043e+02,1.383612335743368e-02,3.069054117645091e-08,1.383018884623579e-02,-9.825742075924208e-03,1.464782145874983e-03,3.799781288513154e-09,1.464414771371900e-03,0.000000000000000e+00,0.000000000000000e+00,0.000000000000000e+00,9.999999999998001e+01,-7.099064242485843e-14,0.000000000000000e+00,3.961268981395857e-03,0.000000000000000e+00,0.000000000000000e+00,9.871245999435632e-07,1.278000000000000e-09,4.680000000000000e+03,6.000000000000000e-01,1,8.889999985694885e-01,8.889999985694885e-01,0.000000000000000e+00,0.000000000000000e+00
1.405800182819602e-02,3.451500028476430e+02,1.371137792209669e-02,2.998772098757812e-08,1.370547060680765e-02,-9.843192013981468e-03,1.458140043662431e-03,3.712765455605072e-09,1.457774352715598e-03,0.000000000000000e+00,0.000000000000000e+00,0.000000000000000e+00,9.999999999998001e+01,-6.922607944776562e-14,0.000000000000000e+00,3.962677538824053e-03,0.000000000000000e+00,0.000000000000000e+00,9.871659994105296e-07,1.278000000000000e-09,4.680000000000000e+03,6.000000000000000e-01,1,8.899999856948853e-01,8.899999856948853e-01,0.000000000000000e+00,0.000000000000000e+00
1.393020347357039e-02,3.449500054226816e+02,1.358663248675969e-02,2.928490079870533e-08,1.358075236737951e-02,-9.860641952038727e-03,1.451497941449880e-03,3.625749622696989e-09,1.451133934059296e-03,0.000000000000000e+00,0.000000000000000e+00,0.000000000000000e+00,9.999999999998001e+01,-6.746151647067280e-14,0.000000000000000e+00,3.964086096252247e-03,0.000000000000000e+00,0.000000000000000e+00,9.872073988774958e-07,1.278000000000000e-09,4.680000000000000e+03,6.000000000000000e-01,1,8.909999728202820e-01,8.909999728202820e-01,0.000000000000000e+00,0.000000000000000e+00
1.380239750147116e-02,3.447499960767913e+02,1.346187961591961e-02,2.858203871794549e-08,1.345602669406931e-02,-9.878092930206738e-03,1.444855443332088e-03,3.538728603174322e-09,1.444493119598103e-03,0.000000000000000e+00,0.000000000000000e+00,0.000000000000000e+00,9.999999999998001e+01,-6.569684831607642e-14,0.000000000000000e+00,3.965494737638089e-03,0.000000000000000e+00,0.000000000000000e+00,9.872488008120946e-07,1.278000000000000e-09,4.680000000000000e+03,6.000000000000001e-01,1,8.920000195503235e-01,8.920000195503235e-01,0.000000000000000e+00,0.000000000000000e+00
1.367459914684552e-02,3.445499986518300e+02,1.333713418058261e-02,2.787921852907270e-08,1.333130845464117e-02,-9.895542868263996e-03,1.438213341119537e-03,3.451712770266240e-09,1.437852700941801e-03,0.000000000000000e+00,0.000000000000000e+00,0.000000000000000e+00,9.999999999997999e+01,-6.393228533898360e-14,0.000000000000000e+00,3.966903295066283e-03,0.000000000000000e+00,0.000000000000000e+00,9.872902002790608e-07,1.278000000000000e-09,4.680000000000000e+03,6.000000000000000e-01,1,8.930000066757202e-01,8.930000066757202e-01,0.000000000000000e+00,0.000000000000000e+00
1.354680079221989e-02,3.443500012268686e+02,1.321238874524561e-02,2.717639834019990e-08,1.320659021521304e-02,-9.912992806321255e-03,1.431571238906985e-03,3.364696937358158e-09,1.431212282285499e-03,0.000000000000000e+00,0.000000000000000e+00,0.000000000000000e+00,9.999999999997999e+01,-6.216772236189077e-14,0.000000000000000e+00,3.968311852494478e-03,0.000000000000000e+00,0.000000000000000e+00,9.873315997460270e-07,1.278000000000000e-09,4.680000000000000e+03,6.000000000000000e-01,1,8.939999938011169e-01,8.939999938011169e-01,0.000000000000000e+00,0.000000000000000e+00
1.341900243759426e-02,3.441500038019072e+02,1.308764330990862e-02,2.647357815132712e-08,1.308187197578490e-02,-9.930442744378515e-03,1.424929136694433e-03,3.277681104450076e-09,1.424571863629197e-03,0.000000000000000e+00,0.000000000000000e+00,0.000000000000000e+00,9.999999999998002e+01,-6.040315938479795e-14,0.000000000000000e+00,3.969720409922673e-03,0.000000000000000e+00,0.000000000000000e+00,9.873729992129935e-07,1.278000000000000e-09,4.680000000000000e+03,6.000000000000000e-01,1,8.949999809265137e-01,8.949999809265137e-01,0.000000000000000e+00,0.000000000000000e+00
1.329119646549502e-02,3.439499944560170e+02,1.296289043906853e-02,2.577071607056728e-08,1.295714630247469e-02,-9.947893722546525e-03,1.418286638576642e-03,3.190660084927408e-09,1.417931049168004e-03,0.000000000000000e+00,0.000000000000000e+00,0.000000000000000e+00,9.999999999997999e+01,-5.863849123020157e-14,0.000000000000000e+00,3.971129051308513e-03,0.000000000000000e+00,0.000000000000000e+00,9.874144011475920e-07,1.278000000000000e-09,4.680000000000000e+03,6.000000000000000e-01,1,8.960000276565552e-01,8.960000276565552e-01,0.000000000000000e+00,0.000000000000000e+00
1.316339811086939e-02,3.437499970310556e+02,1.283814500373154e-02,2.506789588169449e-08,1.283242806304656e-02,-9.965343660603785e-03,1.411644536364090e-03,3.103644252019327e-09,1.411290630511702e-03,0.000000000000000e+00,0.000000000000000e+00,0.000000000000000e+00,9.999999999998002e+01,-5.687392825310875e-14,0.000000000000000e+00,3.972537608736709e-03,0.000000000000000e+00,0.000000000000000e+00,9.874558006145584e-07,1.278000000000000e-09,4.680000000000000e+03,6.000000000000001e-01,1,8.970000147819519e-01,8.970000147819519e-01,0.000000000000000e+00,0.000000000000000e+00
1.303559975624376e-02,3.435499996060943e+02,1.271339956839454e-02,2.436507569282169e-08,1.270770982361842e-02,-9.982793598661045e-03,1.405002434151539e-03,3.016628419111244e-09,1.404650211855400e-03,0.000000000000000e+00,0.000000000000000e+00,0.000000000000000e+00,9.999999999998001e+01,-5.510936527601593e-14,0.000000000000000e+00,3.973946166164904e-03,0.000000000000000e+00,0.000000000000000e+00,9.874972000815247e-07,1.278000000000000e-09,4.680000000000000e+03,6.000000000000000e-01,1,8.980000019073486e-01,8.980000019073486e-01,0.000000000000000e+00,0.000000000000000e+00
1.290780140161812e-02,3.433500021811329e+02,1.258865413305755e-02,2.366225550394890e-08,1.258299158419028e-02,-1.000024353671830e-02,1.398360331938987e-03,2.929612586203162e-09,1.398009793199098e-03,0.000000000000000e+00,0.000000000000000e+00,0.000000000000000e+00,9.999999999998001e+01,-5.334480229892310e-14,0.000000000000000e+00,3.975354723593099e-03,0.000000000000000e+00,0.000000000000000e+00,9.875385995484911e-07,1.278000000000000e-09,4.680000000000000e+03,6.000000000000000e-01,1,8.989999890327454e-01,8.989999890327454e-01,0.000000000000000e+00,0.000000000000000e+00
1.278000304699249e-02,3.431500047561716e+02,1.246390869772055e-02,2.295943531507611e-08,1.245827334476215e-02,-1.001769347477556e-02,1.391718229726435e-03,2.842596753295080e-09,1.391369374542796e-03,0.000000000000000e+00,0.000000000000000e+00,0.000000000000000e+00,9.999999999998002e+01,-5.158023932183028e-14,0.000000000000000e+00,3.976763281021294e-03,0.000000000000000e+00,0.000000000000000e+00,9.875799990154576e-07,1.278000000000000e-09,4.680000000000000e+03,6.000000000000000e-01,1,8.999999761581421e-01,8.999999761581421e-01,0.000000000000000e+00,0.000000000000000e+00
1.265219707489326e-02,3.429499954102813e+02,1.233915582688046e-02,2.225657323431627e-08,1.233354767145194e-02,-1.003514445294357e-02,1.385075731608644e-03,2.755575733772412e-09,1.384728560081603e-03,0.000000000000000e+00,0.000000000000000e+00,0.000000000000000e+00,9.999999999998001e+01,-4.981557116723390e-14,0.000000000000000e+00,3.978171922407134e-03,0.000000000000000e+00,0.000000000000000e+00,9.876214009500561e-07,1.278000000000000e-09,4.680000000000000e+03,6.000000000000000e-01,1,9.010000228881836e-01,9.010000228881836e-01,0.000000000000000e+00,0.000000000000000e+00
1.252439872026762e-02,3.427499979853200e+02,1.221441039154347e-02,2.155375304544348e-08,1.220882943202381e-02,-1.005259439100083e-02,1.378433629396092e-03,2.668559900864330e-09,1.378088141425302e-03,0.000000000000000e+00,0.000000000000000e+00,0.000000000000000e+00,9.999999999998001e+01,-4.805100819014108e-14,0.000000000000000e+00,3.979580479835329e-03,0.000000000000000e+00,0.000000000000000e+00,9.876628004170223e-07,1.278000000000000e-09,4.680000000000000e+03,6.000000000000000e-01,1,9.020000100135803e-01,9.020000100135803e-01,0.000000000000000e+00,0.000000000000000e+00
1.239660036564199e-02,3.425500005603586e+02,1.208966495620647e-02,2.085093285657069e-08,1.208411119259567e-02,-1.007004432905809e-02,1.371791527183541e-03,2.581544067956248e-09,1.371447722769000e-03,0.000000000000000e+00,0.000000000000000e+00,0.000000000000000e+00,9.999999999998001e+01,-4.628644521304826e-14,0.000000000000000e+00,3.980989037263525e-03,0.000000000000000e+00,0.000000000000000e+00,9.877041998839885e-07,1.278000000000000e-09,4.680000000000000e+03,6.000000000000000e-01,1,9.029999971389771e-01,9.029999971389771e-01,0.000000000000000e+00,0.000000000000000e+00
1.226880201101636e-02,3.423500031353972e+02,1.196491952086948e-02,2.014811266769790e-08,1.195939295316753e-02,-1.008749426711535e-02,1.365149424970989e-03,2.494528235048166e-09,1.364807304112697e-03,0.000000000000000e+00,0.000000000000000e+00,0.000000000000000e+00,9.999999999998001e+01,-4.452188223595543e-14,0.000000000000000e+00,3.982397594691720e-03,0.000000000000000e+00,0.000000000000000e+00,9.877455993509550e-07,1.278000000000000e-09,4.680000000000000e+03,6.000000000000000e-01,1,9.039999842643738e-01,9.039999842643738e-01,0.000000000000000e+00,0.000000000000000e+00
1.214100365639073e-02,3.421500057104359e+02,1.184017408553248e-02,1.944529247882510e-08,1.183467471373939e-02,-1.010494420517261e-02,1.358507322758438e-03,2.407512402140084e-09,1.358166885456396e-03,0.000000000000000e+00,0.000000000000000e+00,0.000000000000000e+00,9.999999999998001e+01,-4.275731925886261e-14,0.000000000000000e+00,3.983806152119914e-03,0.000000000000000e+00,0.000000000000000e+00,9.877869988179212e-07,1.278000000000000e-09,4.680000000000000e+03,6.000000000000000e-01,1,9.049999713897705e-01,9.049999713897705e-01,0.000000000000000e+00,0.000000000000000e+00
1.201319768429149e-02,3.419499963645456e+02,1.171542121469239e-02,1.874243039806527e-08,1.170994904042919e-02,-1.012239518334062e-02,1.351864824640646e-03,2.320491382617417e-09,1.351526070995203e-03,0.000000000000000e+00,0.000000000000000e+00,0.000000000000000e+00,9.999999999998002e+01,-4.099265110426624e-14,0.000000000000000e+00,3.985214793505755e-03,0.000000000000000e+00,0.000000000000000e+00,9.878284007525199e-07,1.278000000000000e-09,4.680000000000000e+03,6.000000000000000e-01,1,9.060000181198120e-01,9.060000181198120e-01,0.000000000000000e+00,0.000000000000000e+00
1.188539932966586e-02,3.417499989395843e+02,1.159067577935540e-02,1.803961020919248e-08,1.158523080100106e-02,-1.013984512139788e-02,1.345222722428094e-03,2.233475549709334e-09,1.344885652338901e-03,0.000000000000000e+00,0.000000000000000e+00,0.000000000000000e+00,9.999999999998002e+01,-3.922808812717342e-14,0.000000000000000e+00,3.986623350933950e-03,0.000000000000000e+00,0.000000000000000e+00,9.878698002194862e-07,1.278000000000000e-09,4.680000000000000e+03,6.000000000000000e-01,1,9.070000052452087e-01,9.070000052452087e-01,0.000000000000000e+00,0.000000000000000e+00
1.175760097504023e-02,3.415500015146229e+02,1.146593034401840e-02,1.733679002031969e-08,1.146051256157292e-02,-1.015729505945514e-02,1.338580620215543e-03,2.146459716801252e-09,1.338245233682599e-03,0.000000000000000e+00,0.000000000000000e+00,0.000000000000000e+00,9.999999999997999e+01,-3.746352515008059e-14,0.000000000000000e+00,3.988031908362145e-03,0.000000000000000e+00,0.000000000000000e+00,9.879111996864526e-07,1.278000000000000e-09,4.680000000000000e+03,6.000000000000000e-01,1,9.079999923706055e-01,9.079999923706055e-01,0.000000000000000e+00,0.000000000000000e+00
1.162980262041459e-02,3.413500040896615e+02,1.134118490868141e-02,1.663396983144689e-08,1.133579432214478e-02,-1.017474499751240e-02,1.331938518002992e-03,2.059443883893171e-09,1.331604815026297e-03,0.000000000000000e+00,0.000000000000000e+00,0.000000000000000e+00,9.999999999998001e+01,-3.569896217298777e-14,0.000000000000000e+00,3.989440465790340e-03,0.000000000000000e+00,0.000000000000000e+00,9.879525991534188e-07,1.278000000000000e-09,4.680000000000000e+03,6.000000000000000e-01,1,9.089999794960022e-01,9.089999794960022e-01,0.000000000000000e+00,0.000000000000000e+00
1.150199664831536e-02,3.411499947437713e+02,1.121643203784132e-02,1.593110775068706e-08,1.121106864883458e-02,-1.019219597568041e-02,1.325296019885200e-03,1.972422864370503e-09,1.324964000565104e-03,0.000000000000000e+00,0.000000000000000e+00,0.000000000000000e+00,9.999999999998001e+01,-3.393429401839139e-14,0.000000000000000e+00,3.990849107176181e-03,0.000000000000000e+00,0.000000000000000e+00,9.879940010880176e-07,1.278000000000000e-09,4.680000000000000e+03,6.000000000000000e-01,1,9.100000262260437e-01,9.100000262260437e-01,0.000000000000000e+00,0.000000000000000e+00
1.137419829368973e-02,3.409499973188099e+02,1.109168660250433e-02,1.522828756181427e-08,1.108635040940644e-02,-1.020964591373767e-02,1.318653917672648e-03,1.885407031462420e-09,1.318323581908802e-03,0.000000000000000e+00,0.000000000000000e+00,0.000000000000000e+00,9.999999999998001e+01,-3.216973104129857e-14,0.000000000000000e+00,3.992257664604376e-03,0.000000000000000e+00,0.000000000000000e+00,9.880354005549838e-07,1.278000000000000e-09,4.680000000000000e+03,6.000000000000000e-01,1,9.110000133514404e-01,9.110000133514404e-01,0.000000000000000e+00,0.000000000000000e+00
1.124639993906409e-02,3.407499998938486e+02,1.096694116716733e-02,1.452546737294147e-08,1.096163216997830e-02,-1.022709585179492e-02,1.312011815460097e-03,1.798391198554339e-09,1.311683163252500e-03,0.000000000000000e+00,0.000000000000000e+00,0.000000000000000e+00,9.999999999998001e+01,-3.040516806420575e-14,0.000000000000000e+00,3.993666222032571e-03,0.000000000000000e+00,0.000000000000000e+00,9.880768000219503e-07,1.278000000000000e-09,4.680000000000000e+03,6.000000000000000e-01,1,9.120000004768372e-01,9.120000004768372e-01,0.000000000000000e+00,0.000000000000000e+00
1.111860158443846e-02,3.405500024688872e+02,1.084219573183033e-02,1.382264718406868e-08,1.083691393055017e-02,-1.024454578985218e-02,1.305369713247545e-03,1.711375365646257e-09,1.305042744596198e-03,0.000000000000000e+00,0.000000000000000e+00,0.000000000000000e+00,9.999999999998001e+01,-2.864060508711292e-14,0.000000000000000e+00,3.995074779460766e-03,0.000000000000000e+00,0.000000000000000e+00,9.881181994889165e-07,1.278000000000000e-09,4.680000000000000e+03,6.000000000000000e-01,1,9.129999876022339e-01,9.129999876022339e-01,0.000000000000000e+00,0.000000000000000e+00
1.099080322981283e-02,3.403500050439259e+02,1.071745029649334e-02,1.311982699519589e-08,1.071219569112203e-02,-1.026199572790944e-02,1.298727611034994e-03,1.624359532738175e-09,1.298402325939896e-03,0.000000000000000e+00,0.000000000000000e+00,0.000000000000000e+00,9.999999999998001e+01,-2.687604211002010e-14,0.000000000000000e+00,3.996483336888961e-03,0.000000000000000e+00,0.000000000000000e+00,9.881595989558829e-07,1.278000000000000e-09,4.680000000000000e+03,6.000000000000000e-01,1,9.139999747276306e-01,9.139999747276306e-01,0.000000000000000e+00,0.000000000000000e+00
1.086299725771359e-02,3.401499956980356e+02,1.059269742565325e-02,1.241696491443605e-08,1.058747001781183e-02,-1.027944670607745e-02,1.292085112917202e-03,1.537338513215506e-09,1.291761511478703e-03,0.000000000000000e+00,0.000000000000000e+00,0.000000000000000e+00,9.999999999998001e+01,-2.511137395542371e-14,0.000000000000000e+00,3.997891978274801e-03,0.000000000000000e+00,0.000000000000000e+00,9.882010008904814e-07,1.278000000000000e-09,4.680000000000000e+03,6.000000000000000e-01,1,9.150000214576721e-01,9.150000214576721e-01,0.000000000000000e+00,0.000000000000000e+00
1.073519890308796e-02,3.399499982730742e+02,1.046795199031626e-02,1.171414472556326e-08,1.046275177838369e-02,-1.029689664413471e-02,1.285443010704650e-03,1.450322680307424e-09,1.285121092822401e-03,0.000000000000000e+00,0.000000000000000e+00,0.000000000000000e+00,9.999999999998001e+01,-2.334681097833089e-14,0.000000000000000e+00,3.999300535702997e-03,0.000000000000000e+00,0.000000000000000e+00,9.882424003574477e-07,1.278000000000000e-09,4.680000000000000e+03,6.000000000000000e-01,1,9.160000085830688e-01,9.160000085830688e-01,0.000000000000000e+00,0.000000000000000e+00
1.060740054846233e-02,3.397500008481128e+02,1.034320655497926e-02,1.101132453669047e-08,1.033803353895555e-02,-1.031434658219197e-02,1.278800908492099e-03,1.363306847399343e-09,1.278480674166099e-03,0.000000000000000e+00,0.000000000000000e+00,0.000000000000000e+00,9.999999999998001e+01,-2.158224800123807e-14,0.000000000000000e+00,4.000709093131192e-03,0.000000000000000e+00,0.000000000000000e+00,9.882837998244141e-07,1.278000000000000e-09,4.680000000000000e+03,6.000000000000000e-01,1,9.169999957084656e-01,9.169999957084656e-01,0.000000000000000e+00,0.000000000000000e+00
1.047960219383670e-02,3.395500034231516e+02,1.021846111964226e-02,1.030850434781767e-08,1.021331529952742e-02,-1.033179652024923e-02,1.272158806279547e-03,1.276291014491261e-09,1.271840255509797e-03,0.000000000000000e+00,0.000000000000000e+00,0.000000000000000e+00,9.999999999998001e+01,-1.981768502414525e-14,0.000000000000000e+00,4.002117650559386e-03,0.000000000000000e+00,0.000000000000000e+00,9.883251992913804e-07,1.278000000000000e-09,4.680000000000000e+03,6.000000000000000e-01,1,9.179999828338623e-01,9.179999828338623e-01,0.000000000000000e+00,0.000000000000000e+00
1.035179622173746e-02,3.393499940772612e+02,1.009370824880218e-02,9.605642267057842e-09,1.008858962621721e-02,-1.034924749841724e-02,1.265516308161756e-03,1.189269994968593e-09,1.265199441048604e-03,0.000000000000000e+00,0.000000000000000e+00,0.000000000000000e+00,9.999999999998001e+01,-1.805301686954888e-14,0.000000000000000e+00,4.003526291945227e-03,0.000000000000000e+00,0.000000000000000e+00,9.883666012259789e-07,1.278000000000000e-09,4.680000000000000e+03,6.000000000000000e-01,1,9.190000295639038e-01,9.190000295639038e-01,0.000000000000000e+00,0.000000000000000e+00
1.022399786711183e-02,3.391499966522999e+02,9.968962905984747e-03,8.902835353755349e-09,9.963871479147958e-03,-1.036669742353630e-02,1.258874210875670e-03,1.102255805702548e-09,1.258559027308821e-03,0.000000000000000e+00,0.000000000000000e+00,0.000000000000000e+00,9.999999999998001e+01,-1.628846899504782e-14,0.000000000000000e+00,4.004934844830360e-03,0.000000000000000e+00,0.000000000000000e+00,9.884080006929453e-07,1.278000000000000e-09,4.680000000000000e+03,6.000000000000000e-01,1,9.200000166893005e-01,9.200000166893005e-01,0.000000000000000e+00,0.000000000000000e+00
1.009619951248600e-02,3.389499992273435e+02,9.849760978166706e-03,8.995449356372373e-09,9.844687119784054e-03,-1.038337214189712e-02,1.252527288385447e-03,1.113722301264662e-09,1.252213192389596e-03,0.000000000000000e+00,0.000000000000000e+00,0.000000000000000e+00,9.999999999998001e+01,-1.542881010877157e-14,0.000000000000000e+00,4.006071194977336e-03,0.000000000000000e+00,0.000000000000000e+00,9.884494001599115e-07,1.278000000000000e-09,4.680000000000000e+03,6.000000000000000e-01,1,9.210000038146973e-01,9.210000038146973e-01,0.000000000000000e+00,0.000000000000000e+00
9.968401157860166e-03,3.387500018023873e+02,9.730559050348669e-03,9.088063358989401e-09,9.725502760420153e-03,-1.040004686025793e-02,1.246180365895224e-03,1.125188796826777e-09,1.245867357470371e-03,0.000000000000000e+00,0.000000000000000e+00,0.000000000000000e+00,9.999999999998002e+01,-1.456915122249533e-14,0.000000000000000e+00,4.007207545124313e-03,0.000000000000000e+00,0.000000000000000e+00,9.884907996268780e-07,1.278000000000000e-09,4.680000000000000e+03,6.000000000000000e-01,1,9.219999909400940e-01,9.219999909400940e-01,0.000000000000000e+00,0.000000000000000e+00
9.840602803234332e-03,3.385500043774309e+02,9.611357122530631e-03,9.180677361606426e-09,9.606318401056250e-03,-1.041672157861874e-02,1.239833443405001e-03,1.136655292388891e-09,1.239521522551146e-03,0.000000000000000e+00,0.000000000000000e+00,0.000000000000000e+00,9.999999999998001e+01,-1.370949233621908e-14,0.000000000000000e+00,4.008343895271290e-03,0.000000000000000e+00,0.000000000000000e+00,9.885321990938442e-07,1.278000000000000e-09,4.680000000000000e+03,6.000000000000000e-01,1,9.229999780654907e-01,9.229999780654907e-01,0.000000000000000e+00,0.000000000000000e+00
9.712796831134898e-03,3.383499950315456e+02,9.492148089632554e-03,9.273296884519250e-09,9.487126937659482e-03,-1.043339729088301e-02,1.233486142603847e-03,1.148122471416199e-09,1.233175309385814e-03,0.000000000000000e+00,0.000000000000000e+00,0.000000000000000e+00,9.999999999998001e+01,-1.284978220962059e-14,0.000000000000000e+00,4.009480313150885e-03,0.000000000000000e+00,0.000000000000000e+00,9.885736010284429e-07,1.278000000000000e-09,4.680000000000000e+03,6.000000000000000e-01,1,9.240000247955322e-01,9.240000247955322e-01,0.000000000000000e+00,0.000000000000000e+00
9.584998476509066e-03,3.381499976065892e+02,9.372946161814517e-03,9.365910887136277e-09,9.367942578295579e-03,-1.045007200924382e-02,1.227139220113624e-03,1.159588966978314e-09,1.226829474466589e-03,0.000000000000000e+00,0.000000000000000e+00,0.000000000000000e+00,9.999999999998001e+01,-1.199012332334435e-14,0.000000000000000e+00,4.010616663297862e-03,0.000000000000000e+00,0.000000000000000e+00,9.886150004954092e-07,1.278000000000000e-09,4.680000000000000e+03,6.000000000000000e-01,1,9.250000119209290e-01,9.250000119209290e-01,0.000000000000000e+00,0.000000000000000e+00
9.457200121883233e-03,3.379500001816328e+02,9.253744233996476e-03,9.458524889753301e-09,9.248758218931674e-03,-1.046674672760463e-02,1.220792297623401e-03,1.171055462540428e-09,1.220483639547364e-03,0.000000000000000e+00,0.000000000000000e+00,0.000000000000000e+00,9.999999999997999e+01,-1.113046443706811e-14,0.000000000000000e+00,4.011753013444838e-03,0.000000000000000e+00,0.000000000000000e+00,9.886563999623754e-07,1.278000000000000e-09,4.680000000000000e+03,6.000000000000000e-01,1,9.259999990463257e-01,9.259999990463257e-01,0.000000000000000e+00,0.000000000000000e+00
9.329401767257401e-03,3.377500027566765e+02,9.134542306178437e-03,9.551138892370328e-09,9.129573859567771e-03,-1.048342144596544e-02,1.214445375133178e-03,1.182521958102543e-09,1.214137804628139e-03,0.000000000000000e+00,0.000000000000000e+00,0.000000000000000e+00,9.999999999997999e+01,-1.027080555079186e-14,0.000000000000000e+00,4.012889363591814e-03,0.000000000000000e+00,0.000000000000000e+00,9.886977994293419e-07,1.278000000000000e-09,4.680000000000000e+03,6.000000000000000e-01,1,9.269999861717224e-01,9.269999861717224e-01,0.000000000000000e+00,0.000000000000000e+00
9.201603412631570e-03,3.375500053317202e+02,9.015340378360400e-03,9.643752894987354e-09,9.010389500203869e-03,-1.050009616432625e-02,1.208098452642955e-03,1.193988453664657e-09,1.207791969708913e-03,0.000000000000000e+00,0.000000000000000e+00,0.000000000000000e+00,9.999999999998001e+01,-9.411146664515618e-15,0.000000000000000e+00,4.014025713738791e-03,0.000000000000000e+00,0.000000000000000e+00,9.887391988963081e-07,1.278000000000000e-09,4.680000000000000e+03,6.000000000000000e-01,1,9.279999732971191e-01,9.279999732971191e-01,0.000000000000000e+00,0.000000000000000e+00
9.073797440532135e-03,3.373499959858349e+02,8.896131345462322e-03,9.736372417900177e-09,8.891198036807102e-03,-1.051677187659052e-02,1.201751151841800e-03,1.205455632691966e-09,1.201445756543582e-03,0.000000000000000e+00,0.000000000000000e+00,0.000000000000000e+00,9.999999999998001e+01,-8.551436537917129e-15,0.000000000000000e+00,4.015162131618386e-03,0.000000000000000e+00,0.000000000000000e+00,9.887806008309068e-07,1.278000000000000e-09,4.680000000000000e+03,6.000000000000000e-01,1,9.290000200271606e-01,9.290000200271606e-01,0.000000000000000e+00,0.000000000000000e+00
8.945999085906303e-03,3.371499985608785e+02,8.776929417644285e-03,9.828986420517203e-09,8.772013677443197e-03,-1.053344659495133e-02,1.195404229351577e-03,1.216922128254080e-09,1.195099921624357e-03,0.000000000000000e+00,0.000000000000000e+00,0.000000000000000e+00,9.999999999997999e+01,-7.691777651640883e-15,0.000000000000000e+00,4.016298481765363e-03,0.000000000000000e+00,0.000000000000000e+00,9.888220002978730e-07,1.278000000000000e-09,4.680000000000000e+03,6.000000000000000e-01,1,9.300000071525574e-01,9.300000071525574e-01,0.000000000000000e+00,0.000000000000000e+00
8.818200731280472e-03,3.369500011359222e+02,8.657727489826246e-03,9.921600423134229e-09,8.652829318079296e-03,-1.055012131331214e-02,1.189057306861354e-03,1.228388623816194e-09,1.188754086705132e-03,0.000000000000000e+00,0.000000000000000e+00,0.000000000000000e+00,9.999999999998001e+01,-6.832118765364640e-15,0.000000000000000e+00,4.017434831912340e-03,0.000000000000000e+00,0.000000000000000e+00,9.888633997648395e-07,1.278000000000000e-09,4.680000000000000e+03,6.000000000000000e-01,1,9.309999942779541e-01,9.309999942779541e-01,0.000000000000000e+00,0.000000000000000e+00
8.690402376654638e-03,3.367500037109658e+02,8.538525562008207e-03,1.001421442575126e-08,8.533644958715392e-03,-1.056679603167295e-02,1.182710384371132e-03,1.239855119378309e-09,1.182408251785906e-03,0.000000000000000e+00,0.000000000000000e+00,0.000000000000000e+00,9.999999999998001e+01,-5.972459879088393e-15,0.000000000000000e+00,4.018571182059316e-03,0.000000000000000e+00,0.000000000000000e+00,9.889047992318059e-07,1.278000000000000e-09,4.680000000000000e+03,6.000000000000000e-01,1,9.319999814033508e-01,9.319999814033508e-01,0.000000000000000e+00,0.000000000000000e+00
8.562596404555202e-03,3.365499943650805e+02,8.419316529110130e-03,1.010683394866408e-08,8.414453495318623e-03,-1.058347174393723e-02,1.176363083569977e-03,1.251322298405617e-09,1.176062038620575e-03,0.000000000000000e+00,0.000000000000000e+00,0.000000000000000e+00,9.999999999997999e+01,-5.112749752489906e-15,0.000000000000000e+00,4.019707599938911e-03,0.000000000000000e+00,0.000000000000000e+00,9.889462011664044e-07,1.278000000000000e-09,4.680000000000000e+03,6.000000000000000e-01,1,9.330000281333923e-01,9.330000281333923e-01,0.000000000000000e+00,0.000000000000000e+00
8.434798049929372e-03,3.363499969401242e+02,8.300114601292093e-03,1.019944795128110e-08,8.295269135954722e-03,-1.060014646229804e-02,1.170016161079754e-03,1.262788793967732e-09,1.169716203701350e-03,0.000000000000000e+00,0.000000000000000e+00,0.000000000000000e+00,9.999999999998002e+01,-4.253090866213661e-15,0.000000000000000e+00,4.020843950085888e-03,0.000000000000000e+00,0.000000000000000e+00,9.889876006333707e-07,1.278000000000000e-09,4.680000000000000e+03,6.000000000000001e-01,1,9.340000152587891e-01,9.340000152587891e-01,0.000000000000000e+00,0.000000000000000e+00
8.306999695303539e-03,3.361499995151678e+02,8.180912673474053e-03,1.029206195389813e-08,8.176084776590820e-03,-1.061682118065885e-02,1.163669238589531e-03,1.274255289529846e-09,1.163370368782125e-03,0.000000000000000e+00,0.000000000000000e+00,0.000000000000000e+00,9.999999999998001e+01,-3.393431979937417e-15,0.000000000000000e+00,4.021980300232864e-03,0.000000000000000e+00,0.000000000000000e+00,9.890290001003369e-07,1.278000000000000e-09,4.680000000000000e+03,6.000000000000000e-01,1,9.350000023841858e-01,9.350000023841858e-01,0.000000000000000e+00,0.000000000000000e+00
8.179201340677707e-03,3.359500020902115e+02,8.061710745656014e-03,1.038467595651516e-08,8.056900417226915e-03,-1.063349589901966e-02,1.157322316099308e-03,1.285721785091960e-09,1.157024533862899e-03,0.000000000000000e+00,0.000000000000000e+00,0.000000000000000e+00,9.999999999997999e+01,-2.533773093661172e-15,0.000000000000000e+00,4.023116650379840e-03,0.000000000000000e+00,0.000000000000000e+00,9.890703995673034e-07,1.278000000000000e-09,4.680000000000000e+03,6.000000000000000e-01,1,9.359999895095825e-01,9.359999895095825e-01,0.000000000000000e+00,0.000000000000000e+00
8.051402986051875e-03,3.357500046652551e+02,7.942508817837977e-03,1.047728995913218e-08,7.937716057863012e-03,-1.065017061738047e-02,1.150975393609085e-03,1.297188280654075e-09,1.150678698943674e-03,0.000000000000000e+00,0.000000000000000e+00,0.000000000000000e+00,9.999999999998001e+01,-1.674114207384928e-15,0.000000000000000e+00,4.024253000526817e-03,0.000000000000000e+00,0.000000000000000e+00,9.891117990342696e-07,1.278000000000000e-09,4.680000000000000e+03,6.000000000000000e-01,1,9.369999766349792e-01,9.369999766349792e-01,0.000000000000000e+00,0.000000000000000e+00
7.923597013952441e-03,3.355499953193699e+02,7.823299784939900e-03,1.056990948204501e-08,7.818524594466244e-03,-1.066684632964474e-02,1.144628092807931e-03,1.308655459681383e-09,1.144332485778343e-03,0.000000000000000e+00,0.000000000000000e+00,0.000000000000000e+00,9.999999999998001e+01,-8.144040807864383e-16,0.000000000000000e+00,4.025389418406413e-03,0.000000000000000e+00,0.000000000000000e+00,9.891532009688683e-07,1.278000000000000e-09,4.680000000000000e+03,6.000000000000000e-01,1,9.380000233650208e-01,9.380000233650208e-01,0.000000000000000e+00,0.000000000000000e+00
7.795798659326608e-03,3.353499978944135e+02,7.704097857121860e-03,1.066252348466203e-08,7.699340235102341e-03,-1.068352104800555e-02,1.138281170317708e-03,1.320121955243497e-09,1.137986650859118e-03,0.000000000000000e+00,0.000000000000000e+00,0.000000000000000e+00,9.999999999998001e+01,4.525480548980730e-17,0.000000000000000e+00,4.026525768553389e-03,0.000000000000000e+00,0.000000000000000e+00,9.891946004358345e-07,1.278000000000000e-09,4.680000000000000e+03,6.000000000000000e-01,1,9.390000104904175e-01,9.390000104904175e-01,0.000000000000000e+00,0.000000000000000e+00
7.668000304700776e-03,3.351500004694572e+02,7.584895929303823e-03,1.075513748727906e-08,7.580155875738438e-03,-1.070019576636636e-02,1.131934247827485e-03,1.331588450805612e-09,1.131640815939893e-03,0.000000000000000e+00,0.000000000000000e+00,0.000000000000000e+00,9.999999999998002e+01,9.049136917660498e-16,0.000000000000000e+00,4.027662118700365e-03,0.000000000000000e+00,0.000000000000000e+00,9.892359999028010e-07,1.278000000000000e-09,4.680000000000000e+03,6.000000000000001e-01,1,9.399999976158142e-01,9.399999976158142e-01,0.000000000000000e+00,0.000000000000000e+00
7.540201950074944e-03,3.349500030445008e+02,7.465694001485784e-03,1.084775148989608e-08,7.460971516374535e-03,-1.071687048472717e-02,1.125587325337262e-03,1.343054946367726e-09,1.125294981020667e-03,0.000000000000000e+00,0.000000000000000e+00,0.000000000000000e+00,9.999999999998001e+01,1.764572578042295e-15,0.000000000000000e+00,4.028798468847341e-03,0.000000000000000e+00,0.000000000000000e+00,9.892773993697672e-07,1.278000000000000e-09,4.680000000000000e+03,6.000000000000000e-01,1,9.409999847412109e-01,9.409999847412109e-01,0.000000000000000e+00,0.000000000000000e+00
7.412403595449112e-03,3.347500056195445e+02,7.346492073667745e-03,1.094036549251311e-08,7.341787157010633e-03,-1.073354520308798e-02,1.119240402847039e-03,1.354521441929841e-09,1.118949146101442e-03,0.000000000000000e+00,0.000000000000000e+00,0.000000000000000e+00,9.999999999998001e+01,2.624231464318541e-15,0.000000000000000e+00,4.029934818994318e-03,0.000000000000000e+00,0.000000000000000e+00,9.893187988367337e-07,1.278000000000000e-09,4.680000000000000e+03,6.000000000000000e-01,1,9.419999718666077e-01,9.419999718666077e-01,0.000000000000000e+00,0.000000000000000e+00
7.284597623349678e-03,3.345499962736592e+02,7.227283040769668e-03,1.103298501542593e-08,7.222595693613865e-03,-1.075022091535226e-02,1.112893102045885e-03,1.365988620957149e-09,1.112602932936111e-03,0.000000000000000e+00,0.000000000000000e+00,0.000000000000000e+00,9.999999999998001e+01,3.483941590917027e-15,0.000000000000000e+00,4.031071236873913e-03,0.000000000000000e+00,0.000000000000000e+00,9.893602007713322e-07,1.278000000000000e-09,4.680000000000000e+03,6.000000000000000e-01,1,9.430000185966492e-01,9.430000185966492e-01,0.000000000000000e+00,0.000000000000000e+00
7.156799268723845e-03,3.343499988487029e+02,7.108081112951630e-03,1.112559901804296e-08,7.103411334249961e-03,-1.076689563371307e-02,1.106546179555662e-03,1.377455116519264e-09,1.106257098016886e-03,0.000000000000000e+00,0.000000000000000e+00,0.000000000000000e+00,9.999999999998001e+01,4.343600477193273e-15,0.000000000000000e+00,4.032207587020890e-03,0.000000000000000e+00,0.000000000000000e+00,9.894016002382984e-07,1.278000000000000e-09,4.680000000000000e+03,6.000000000000000e-01,1,9.440000057220459e-01,9.440000057220459e-01,0.000000000000000e+00,0.000000000000000e+00
7.029000914098013e-03,3.341500014237465e+02,6.988879185133592e-03,1.121821302065999e-08,6.984226974886059e-03,-1.078357035207388e-02,1.100199257065439e-03,1.388921612081378e-09,1.099911263097660e-03,0.000000000000000e+00,0.000000000000000e+00,0.000000000000000e+00,9.999999999998001e+01,5.203259363469515e-15,0.000000000000000e+00,4.033343937167867e-03,0.000000000000000e+00,0.000000000000000e+00,9.894429997052649e-07,1.278000000000000e-09,4.680000000000000e+03,6.000000000000000e-01,1,9.449999928474426e-01,9.449999928474426e-01,0.000000000000000e+00,0.000000000000000e+00
6.901202559472181e-03,3.339500039987901e+02,6.869677257315554e-03,1.131082702327701e-08,6.865042615522156e-03,-1.080024507043469e-02,1.093852334575216e-03,1.400388107643493e-09,1.093565428178435e-03,0.000000000000000e+00,0.000000000000000e+00,0.000000000000000e+00,9.999999999998001e+01,6.062918249745762e-15,0.000000000000000e+00,4.034480287314843e-03,0.000000000000000e+00,0.000000000000000e+00,9.894843991722313e-07,1.278000000000000e-09,4.680000000000000e+03,6.000000000000000e-01,1,9.459999799728394e-01,9.459999799728394e-01,0.000000000000000e+00,0.000000000000000e+00
6.773396587372747e-03,3.337499946529048e+02,6.750468224417477e-03,1.140344654618984e-08,6.745851152125388e-03,-1.081692078269896e-02,1.087505033774062e-03,1.411855286670801e-09,1.087219215013104e-03,0.000000000000000e+00,0.000000000000000e+00,0.000000000000000e+00,9.999999999998001e+01,6.922628376344247e-15,0.000000000000000e+00,4.035616705194438e-03,0.000000000000000e+00,0.000000000000000e+00,9.895258011068298e-07,1.278000000000000e-09,4.680000000000000e+03,6.000000000000000e-01,1,9.470000267028809e-01,9.470000267028809e-01,0.000000000000000e+00,0.000000000000000e+00
6.645598232746915e-03,3.335499972279485e+02,6.631266296599438e-03,1.149606054880686e-08,6.626666792761485e-03,-1.083359550105977e-02,1.081158111283839e-03,1.423321782232915e-09,1.080873380093879e-03,0.000000000000000e+00,0.000000000000000e+00,0.000000000000000e+00,9.999999999998001e+01,7.782287262620493e-15,0.000000000000000e+00,4.036753055341415e-03,0.000000000000000e+00,0.000000000000000e+00,9.895672005737960e-07,1.278000000000000e-09,4.680000000000000e+03,6.000000000000000e-01,1,9.480000138282776e-01,9.480000138282776e-01,0.000000000000000e+00,0.000000000000000e+00
6.517799878121082e-03,3.333499998029922e+02,6.512064368781399e-03,1.158867455142389e-08,6.507482433397582e-03,-1.085027021942058e-02,1.074811188793616e-03,1.434788277795030e-09,1.074527545174654e-03,0.000000000000000e+00,0.000000000000000e+00,0.000000000000000e+00,9.999999999998001e+01,8.641946148896738e-15,0.000000000000000e+00,4.037889405488391e-03,0.000000000000000e+00,0.000000000000000e+00,9.896086000407625e-07,1.278000000000000e-09,4.680000000000000e+03,6.000000000000000e-01,1,9.490000009536743e-01,9.490000009536743e-01,0.000000000000000e+00,0.000000000000000e+00
6.390001523495250e-03,3.331500023780358e+02,6.392862440963360e-03,1.168128855404091e-08,6.388298074033678e-03,-1.086694493778139e-02,1.068464266303393e-03,1.446254773357144e-09,1.068181710255428e-03,0.000000000000000e+00,0.000000000000000e+00,0.000000000000000e+00,9.999999999998001e+01,9.501605035172986e-15,0.000000000000000e+00,4.039025755635368e-03,0.000000000000000e+00,0.000000000000000e+00,9.896499995077287e-07,1.278000000000000e-09,4.680000000000000e+03,6.000000000000000e-01,1,9.499999880790710e-01,9.499999880790710e-01,0.000000000000000e+00,0.000000000000000e+00
6.262203168869418e-03,3.329500049530795e+02,6.273660513145323e-03,1.177390255665794e-08,6.269113714669776e-03,-1.088361965614220e-02,1.062117343813170e-03,1.457721268919259e-09,1.061835875336203e-03,0.000000000000000e+00,0.000000000000000e+00,0.000000000000000e+00,9.999999999998001e+01,1.036126392144923e-14,0.000000000000000e+00,4.040162105782345e-03,0.000000000000000e+00,0.000000000000000e+00,9.896913989746952e-07,1.278000000000000e-09,4.680000000000000e+03,6.000000000000000e-01,1,9.509999752044678e-01,9.509999752044678e-01,0.000000000000000e+00,0.000000000000000e+00
6.134397196769982e-03,3.327499956071941e+02,6.154451480247245e-03,1.186652207957076e-08,6.149922251273008e-03,-1.090029536840647e-02,1.055770043012016e-03,1.469188447946567e-09,1.055489662170872e-03,0.000000000000000e+00,0.000000000000000e+00,0.000000000000000e+00,9.999999999998001e+01,1.122097404804772e-14,0.000000000000000e+00,4.041298523661940e-03,0.000000000000000e+00,0.000000000000000e+00,9.897328009092937e-07,1.278000000000000e-09,4.680000000000000e+03,6.000000000000000e-01,1,9.520000219345093e-01,9.520000219345093e-01,0.000000000000000e+00,0.000000000000000e+00
6.006598842144151e-03,3.325499981822379e+02,6.035249552429207e-03,1.195913608218779e-08,6.030737891909105e-03,-1.091697008676728e-02,1.049423120521793e-03,1.480654943508682e-09,1.049143827251647e-03,0.000000000000000e+00,0.000000000000000e+00,0.000000000000000e+00,9.999999999998001e+01,1.208063293432396e-14,0.000000000000000e+00,4.042434873808916e-03,0.000000000000000e+00,0.000000000000000e+00,9.897742003762599e-07,1.278000000000000e-09,4.680000000000000e+03,6.000000000000000e-01,1,9.530000090599060e-01,9.530000090599060e-01,0.000000000000000e+00,0.000000000000000e+00
5.878800487518319e-03,3.323500007572815e+02,5.916047624611169e-03,1.205175008480482e-08,5.911553532545202e-03,-1.093364480512810e-02,1.043076198031570e-03,1.492121439070796e-09,1.042797992332421e-03,0.000000000000000e+00,0.000000000000000e+00,0.000000000000000e+00,9.999999999998001e+01,1.294029182060020e-14,0.000000000000000e+00,4.043571223955893e-03,0.000000000000000e+00,0.000000000000000e+00,9.898155998432264e-07,1.278000000000000e-09,4.680000000000000e+03,6.000000000000000e-01,1,9.539999961853027e-01,9.539999961853027e-01,0.000000000000000e+00,0.000000000000000e+00
5.751002132892486e-03,3.321500033323251e+02,5.796845696793130e-03,1.214436408742184e-08,5.792369173181298e-03,-1.095031952348891e-02,1.036729275541347e-03,1.503587934632910e-09,1.036452157413196e-03,0.000000000000000e+00,0.000000000000000e+00,0.000000000000000e+00,9.999999999998001e+01,1.379995070687645e-14,0.000000000000000e+00,4.044707574102869e-03,0.000000000000000e+00,0.000000000000000e+00,9.898569993101926e-07,1.278000000000000e-09,4.680000000000000e+03,6.000000000000000e-01,1,9.549999833106995e-01,9.549999833106995e-01,0.000000000000000e+00,0.000000000000000e+00
5.623203778266654e-03,3.319500059073688e+02,5.677643768975092e-03,1.223697809003887e-08,5.673184813817396e-03,-1.096699424184972e-02,1.030382353051124e-03,1.515054430195025e-09,1.030106322493971e-03,0.000000000000000e+00,0.000000000000000e+00,0.000000000000000e+00,9.999999999997999e+01,1.465960959315269e-14,0.000000000000000e+00,4.045843924249845e-03,0.000000000000000e+00,0.000000000000000e+00,9.898983987771590e-07,1.278000000000000e-09,4.680000000000000e+03,6.000000000000000e-01,1,9.559999704360962e-01,9.559999704360962e-01,0.000000000000000e+00,0.000000000000000e+00
5.495397806167219e-03,3.317499965614835e+02,5.558434736077014e-03,1.232959761295169e-08,5.553993350420628e-03,-1.098366995411399e-02,1.024035052249970e-03,1.526521609222333e-09,1.023760109328640e-03,0.000000000000000e+00,0.000000000000000e+00,0.000000000000000e+00,9.999999999998001e+01,1.551931971975119e-14,0.000000000000000e+00,4.046980342129441e-03,0.000000000000000e+00,0.000000000000000e+00,9.899398007117575e-07,1.278000000000000e-09,4.680000000000000e+03,6.000000000000000e-01,1,9.570000171661377e-01,9.570000171661377e-01,0.000000000000000e+00,0.000000000000000e+00
5.367599451541387e-03,3.315499991365271e+02,5.439232808258977e-03,1.242221161556872e-08,5.434808991056726e-03,-1.100034467247480e-02,1.017688129759747e-03,1.537988104784448e-09,1.017414274409414e-03,0.000000000000000e+00,0.000000000000000e+00,0.000000000000000e+00,9.999999999998001e+01,1.637897860602743e-14,0.000000000000000e+00,4.048116692276418e-03,0.000000000000000e+00,0.000000000000000e+00,9.899812001787240e-07,1.278000000000000e-09,4.680000000000000e+03,6.000000000000000e-01,1,9.580000042915344e-01,9.580000042915344e-01,0.000000000000000e+00,0.000000000000000e+00
5.239801096915555e-03,3.313500017115708e+02,5.320030880440938e-03,1.251482561818574e-08,5.315624631692821e-03,-1.101701939083561e-02,1.011341207269524e-03,1.549454600346562e-09,1.011068439490189e-03,0.000000000000000e+00,0.000000000000000e+00,0.000000000000000e+00,9.999999999998001e+01,1.723863749230367e-14,0.000000000000000e+00,4.049253042423394e-03,0.000000000000000e+00,0.000000000000000e+00,9.900225996456902e-07,1.278000000000000e-09,4.680000000000000e+03,6.000000000000000e-01,1,9.589999914169312e-01,9.589999914169312e-01,0.000000000000000e+00,0.000000000000000e+00
5.112002742289723e-03,3.311500042866144e+02,5.200828952622899e-03,1.260743962080277e-08,5.196440272328918e-03,-1.103369410919642e-02,1.004994284779301e-03,1.560921095908676e-09,1.004722604570964e-03,0.000000000000000e+00,0.000000000000000e+00,0.000000000000000e+00,9.999999999998001e+01,1.809829637857992e-14,0.000000000000000e+00,4.050389392570370e-03,0.000000000000000e+00,0.000000000000000e+00,9.900639991126565e-07,1.278000000000000e-09,4.680000000000000e+03,6.000000000000000e-01,1,9.599999785423279e-01,9.599999785423279e-01,0.000000000000000e+00,0.000000000000000e+00
4.984196770190437e-03,3.309499949407292e+02,5.084544759313309e-03,1.159205150390452e-08,5.080166382360585e-03,-1.104995998965924e-02,9.988026749364093e-04,1.435206376673650e-09,9.985316325539502e-04,0.000000000000000e+00,0.000000000000000e+00,0.000000000000000e+00,9.999999999998001e+01,1.764584551965821e-14,0.000000000000000e+00,4.051253607622853e-03,0.000000000000000e+00,0.000000000000000e+00,9.901054010472552e-07,1.278000000000000e-09,4.680000000000000e+03,6.000000000000000e-01,1,9.610000252723694e-01,9.610000252723694e-01,0.000000000000000e+00,0.000000000000000e+00
4.856398415564755e-03,3.307499975157728e+02,4.968267559512510e-03,1.057670013289019e-08,4.963899485131043e-03,-1.106622489185210e-02,9.926114374654445e-04,1.309496206929014e-09,9.923410328611969e-04,0.000000000000000e+00,0.000000000000000e+00,0.000000000000000e+00,9.999999999998001e+01,1.719339347424968e-14,0.000000000000000e+00,4.052117765326195e-03,0.000000000000000e+00,0.000000000000000e+00,9.901468005142216e-07,1.278000000000000e-09,4.680000000000000e+03,6.000000000000000e-01,1,9.620000123977661e-01,9.620000123977661e-01,0.000000000000000e+00,0.000000000000000e+00
4.728600060939073e-03,3.305500000908165e+02,4.851990359711712e-03,9.561348761875865e-09,4.847632587901500e-03,-1.108248979404494e-02,9.864201999944802e-04,1.183786037184379e-09,9.861504331684435e-04,0.000000000000000e+00,0.000000000000000e+00,0.000000000000000e+00,9.999999999998001e+01,1.674094142884114e-14,0.000000000000000e+00,4.052981923029537e-03,0.000000000000000e+00,0.000000000000000e+00,9.901881999811879e-07,1.278000000000000e-09,4.680000000000000e+03,6.000000000000000e-01,1,9.629999995231628e-01,9.629999995231628e-01,0.000000000000000e+00,0.000000000000000e+00
4.600801706313390e-03,3.303500026658601e+02,4.735713159910913e-03,8.545997390861540e-09,4.731365690671959e-03,-1.109875469623779e-02,9.802289625235154e-04,1.058075867439743e-09,9.799598334756902e-04,0.000000000000000e+00,0.000000000000000e+00,0.000000000000000e+00,9.999999999998001e+01,1.628848938343260e-14,0.000000000000000e+00,4.053846080732879e-03,0.000000000000000e+00,0.000000000000000e+00,9.902295994481541e-07,1.278000000000000e-09,4.680000000000000e+03,6.000000000000000e-01,1,9.639999866485596e-01,9.639999866485596e-01,0.000000000000000e+00,0.000000000000000e+00
4.473003351687708e-03,3.301500052409037e+02,4.619435960110115e-03,7.530646019847212e-09,4.615098793442417e-03,-1.111501959843065e-02,9.740377250525510e-04,9.323656976951074e-10,9.737692337829369e-04,0.000000000000000e+00,0.000000000000000e+00,0.000000000000000e+00,9.999999999998001e+01,1.583603733802407e-14,0.000000000000000e+00,4.054710238436221e-03,0.000000000000000e+00,0.000000000000000e+00,9.902709989151205e-07,1.278000000000000e-09,4.680000000000000e+03,6.000000000000000e-01,1,9.649999737739563e-01,9.649999737739563e-01,0.000000000000000e+00,0.000000000000000e+00
4.345197379588423e-03,3.299499958950184e+02,4.503151829558897e-03,6.515234128395914e-09,4.498824966076544e-03,-1.113128547009969e-02,9.678461185503250e-04,8.066480349439894e-10,9.675782650969372e-04,0.000000000000000e+00,0.000000000000000e+00,0.000000000000000e+00,9.999999999998001e+01,1.538355832402487e-14,0.000000000000000e+00,4.055574447648039e-03,0.000000000000000e+00,0.000000000000000e+00,9.903124008497190e-07,1.278000000000000e-09,4.680000000000000e+03,6.000000000000000e-01,1,9.660000205039978e-01,9.660000205039978e-01,0.000000000000000e+00,0.000000000000000e+00
4.217399024962740e-03,3.297499984700621e+02,4.386874629758098e-03,5.499882757381588e-09,4.382558068847002e-03,-1.114755037229254e-02,9.616548810793605e-04,6.809378651993539e-10,9.613876654041840e-04,0.000000000000000e+00,0.000000000000000e+00,0.000000000000000e+00,9.999999999998001e+01,1.493110627861633e-14,0.000000000000000e+00,4.056438605351381e-03,0.000000000000000e+00,0.000000000000000e+00,9.903538003166855e-07,1.278000000000000e-09,4.680000000000000e+03,6.000000000000000e-01,1,9.670000076293945e-01,9.670000076293945e-01,0.000000000000000e+00,0.000000000000000e+00
4.089600670337057e-03,3.295500010451058e+02,4.270597429957298e-03,4.484531386367257e-09,4.266291171617460e-03,-1.116381527448539e-02,9.554636436083959e-04,5.552276954547176e-10,9.551970657114306e-04,0.000000000000000e+00,0.000000000000000e+00,0.000000000000000e+00,9.999999999997999e+01,1.447865423320780e-14,0.000000000000000e+00,4.057302763054722e-03,0.000000000000000e+00,0.000000000000000e+00,9.903951997836517e-07,1.278000000000000e-09,4.680000000000000e+03,6.000000000000000e-01,1,9.679999947547913e-01,9.679999947547913e-01,0.000000000000000e+00,0.000000000000000e+00
3.961802315711375e-03,3.293500036201494e+02,4.154320230156500e-03,3.469180015352931e-09,4.150024274387918e-03,-1.118008017667825e-02,9.492724061374312e-04,4.295175257100819e-10,9.490064660186773e-04,0.000000000000000e+00,0.000000000000000e+00,0.000000000000000e+00,9.999999999997999e+01,1.402620218779926e-14,0.000000000000000e+00,4.058166920758065e-03,0.000000000000000e+00,0.000000000000000e+00,9.904365992506180e-07,1.278000000000000e-09,4.680000000000000e+03,6.000000000000000e-01,1,9.689999818801880e-01,9.689999818801880e-01,0.000000000000000e+00,0.000000000000000e+00
3.833996343612090e-03,3.291499942742641e+02,4.038036099605281e-03,2.453768123901636e-09,4.033750447022045e-03,-1.119634604834729e-02,9.430807996352053e-04,3.037998629589646e-10,9.428154973326777e-04,0.000000000000000e+00,0.000000000000000e+00,0.000000000000000e+00,9.999999999997999e+01,1.357372317380007e-14,0.000000000000000e+00,4.059031129969883e-03,0.000000000000000e+00,0.000000000000000e+00,9.904780011852167e-07,1.278000000000000e-09,4.680000000000000e+03,6.000000000000000e-01,1,9.700000286102295e-01,9.700000286102295e-01,0.000000000000000e+00,0.000000000000000e+00
3.706197988986408e-03,3.289499968493078e+02,3.921758899804483e-03,1.438416752887309e-09,3.917483549792503e-03,-1.121261095054014e-02,9.368895621642408e-04,1.780896932143290e-10,9.366248976399244e-04,0.000000000000000e+00,0.000000000000000e+00,0.000000000000000e+00,9.999999999997999e+01,1.312127112839153e-14,0.000000000000000e+00,4.059895287673225e-03,0.000000000000000e+00,0.000000000000000e+00,9.905194006521829e-07,1.278000000000000e-09,4.680000000000000e+03,6.000000000000000e-01,1,9.710000157356262e-01,9.710000157356262e-01,0.000000000000000e+00,0.000000000000000e+00
3.578399634360725e-03,3.287499994243514e+02,3.805481700003684e-03,4.230653818729830e-10,3.801216652562962e-03,-1.122887585273299e-02,9.306983246932762e-04,5.237952346969336e-11,9.304342979471710e-04,0.000000000000000e+00,0.000000000000000e+00,0.000000000000000e+00,9.999999999998002e+01,1.266881908298299e-14,0.000000000000000e+00,4.060759445376567e-03,0.000000000000000e+00,0.000000000000000e+00,9.905608001191494e-07,1.278000000000000e-09,4.680000000000000e+03,6.000000000000000e-01,1,9.720000028610229e-01,9.720000028610229e-01,0.000000000000000e+00,0.000000000000000e+00
3.450601279735043e-03,3.285500019993951e+02,3.689204500202885e-03,-5.922859891413468e-10,3.684949755333419e-03,-1.124514075492584e-02,9.245070872223116e-04,-7.333064627494286e-11,9.242436982544178e-04,0.000000000000000e+00,0.000000000000000e+00,0.000000000000000e+00,9.999999999998002e+01,1.221636703757445e-14,0.000000000000000e+00,4.061623603079909e-03,0.000000000000000e+00,0.000000000000000e+00,9.906021995861156e-07,1.278000000000000e-09,4.680000000000000e+03,6.000000000000000e-01,1,9.729999899864197e-01,9.729999899864197e-01,0.000000000000000e+00,0.000000000000000e+00
3.322802925109360e-03,3.283500045744387e+02,3.572927300402087e-03,-1.607637360155673e-09,3.568682858103878e-03,-1.126140565711869e-02,9.183158497513470e-04,-1.990408160195785e-10,9.180530985616643e-04,0.000000000000000e+00,0.000000000000000e+00,0.000000000000000e+00,9.999999999998001e+01,1.176391499216591e-14,0.000000000000000e+00,4.062487760783251e-03,0.000000000000000e+00,0.000000000000000e+00,9.906435990530820e-07,1.278000000000000e-09,4.680000000000000e+03,6.000000000000000e-01,1,9.739999771118164e-01,9.739999771118164e-01,0.000000000000000e+00,0.000000000000000e+00
3.194996953010075e-03,3.281499952285535e+02,3.456643169850867e-03,-2.623049251606972e-09,3.452409030738004e-03,-1.127767152878775e-02,9.121242432491211e-04,-3.247584787706964e-10,9.118621298756647e-04,0.000000000000000e+00,0.000000000000000e+00,0.000000000000000e+00,9.999999999998001e+01,1.131143597816672e-14,0.000000000000000e+00,4.063351969995068e-03,0.000000000000000e+00,0.000000000000000e+00,9.906850009876806e-07,1.278000000000000e-09,4.680000000000000e+03,6.000000000000000e-01,1,9.750000238418579e-01,9.750000238418579e-01,0.000000000000000e+00,0.000000000000000e+00
3.067198598384393e-03,3.279499978035971e+02,3.340365970050069e-03,-3.638400622621298e-09,3.336142133508462e-03,-1.129393643098060e-02,9.059330057781565e-04,-4.504686485153320e-10,9.056715301829115e-04,0.000000000000000e+00,0.000000000000000e+00,0.000000000000000e+00,9.999999999998001e+01,1.085898393275818e-14,0.000000000000000e+00,4.064216127698412e-03,0.000000000000000e+00,0.000000000000000e+00,9.907264004546468e-07,1.278000000000000e-09,4.680000000000000e+03,6.000000000000000e-01,1,9.760000109672546e-01,9.760000109672546e-01,0.000000000000000e+00,0.000000000000000e+00
2.939400243758710e-03,3.277500003786407e+02,3.224088770249271e-03,-4.653751993635624e-09,3.219875236278920e-03,-1.131020133317345e-02,8.997417683071919e-04,-5.761788182599678e-10,8.994809304901580e-04,0.000000000000000e+00,0.000000000000000e+00,0.000000000000000e+00,9.999999999998001e+01,1.040653188734965e-14,0.000000000000000e+00,4.065080285401753e-03,0.000000000000000e+00,0.000000000000000e+00,9.907677999216132e-07,1.278000000000000e-09,4.680000000000000e+03,6.000000000000000e-01,1,9.769999980926514e-01,9.769999980926514e-01,0.000000000000000e+00,0.000000000000000e+00
2.811601889133028e-03,3.275500029536844e+02,3.107811570448472e-03,-5.669103364649950e-09,3.103608339049379e-03,-1.132646623536630e-02,8.935505308362273e-04,-7.018889880046034e-10,8.932903307974048e-04,0.000000000000000e+00,0.000000000000000e+00,0.000000000000000e+00,9.999999999998001e+01,9.954079841941109e-15,0.000000000000000e+00,4.065944443105095e-03,0.000000000000000e+00,0.000000000000000e+00,9.908091993885797e-07,1.278000000000000e-09,4.680000000000000e+03,6.000000000000000e-01,1,9.779999852180481e-01,9.779999852180481e-01,0.000000000000000e+00,0.000000000000000e+00
2.683803534507345e-03,3.273500055287280e+02,2.991534370647673e-03,-6.684454735664282e-09,2.987341441819836e-03,-1.134273113755915e-02,8.873592933652627e-04,-8.275991577492395e-10,8.870997311046513e-04,0.000000000000000e+00,0.000000000000000e+00,0.000000000000000e+00,9.999999999998001e+01,9.501627796532569e-15,0.000000000000000e+00,4.066808600808437e-03,0.000000000000000e+00,0.000000000000000e+00,9.908505988555459e-07,1.278000000000000e-09,4.680000000000000e+03,6.000000000000000e-01,1,9.789999723434448e-01,9.789999723434448e-01,0.000000000000000e+00,0.000000000000000e+00
2.555997562408060e-03,3.271499961828427e+02,2.875250240096454e-03,-7.699866627115576e-09,2.871067614453963e-03,-1.135899700922820e-02,8.811676868630369e-04,-9.533168205003571e-10,8.809087624186518e-04,0.000000000000000e+00,0.000000000000000e+00,0.000000000000000e+00,9.999999999997999e+01,9.049148782533376e-15,0.000000000000000e+00,4.067672810020255e-03,0.000000000000000e+00,0.000000000000000e+00,9.908920007901444e-07,1.278000000000000e-09,4.680000000000000e+03,5.999999999999999e-01,1,9.800000190734863e-01,9.800000190734863e-01,0.000000000000000e+00,0.000000000000000e+00
2.428199207782377e-03,3.269499987578864e+02,2.758973040295655e-03,-8.715217998129906e-09,2.754800717224421e-03,-1.137526191142105e-02,8.749764493920723e-04,-1.079026990244993e-09,8.747181627258985e-04,0.000000000000000e+00,0.000000000000000e+00,0.000000000000000e+00,9.999999999998002e+01,8.596696737124839e-15,0.000000000000000e+00,4.068536967723598e-03,0.000000000000000e+00,0.000000000000000e+00,9.909334002571109e-07,1.278000000000000e-09,4.680000000000000e+03,6.000000000000001e-01,1,9.810000061988831e-01,9.810000061988831e-01,0.000000000000000e+00,0.000000000000000e+00
2.300400853156695e-03,3.267500013329300e+02,2.642695840494856e-03,-9.730569369144229e-09,2.638533819994879e-03,-1.139152681361390e-02,8.687852119211077e-04,-1.204737159989628e-09,8.685275630331451e-04,0.000000000000000e+00,0.000000000000000e+00,0.000000000000000e+00,9.999999999997999e+01,8.144244691716301e-15,0.000000000000000e+00,4.069401125426939e-03,0.000000000000000e+00,0.000000000000000e+00,9.909747997240771e-07,1.278000000000000e-09,4.680000000000000e+03,6.000000000000000e-01,1,9.819999933242798e-01,9.819999933242798e-01,0.000000000000000e+00,0.000000000000000e+00
2.172602498531013e-03,3.265500039079737e+02,2.526418640694058e-03,-1.074592074015856e-08,2.522266922765338e-03,-1.140779171580675e-02,8.625939744501432e-04,-1.330447329734264e-09,8.623369633403918e-04,0.000000000000000e+00,0.000000000000000e+00,0.000000000000000e+00,9.999999999998002e+01,7.691792646307764e-15,0.000000000000000e+00,4.070265283130281e-03,0.000000000000000e+00,0.000000000000000e+00,9.910161991910435e-07,1.278000000000000e-09,4.680000000000000e+03,6.000000000000000e-01,1,9.829999804496765e-01,9.829999804496765e-01,0.000000000000000e+00,0.000000000000000e+00
2.044796526431728e-03,3.263499945620884e+02,2.410134510142839e-03,-1.176133263160985e-08,2.405993095399465e-03,-1.142405758747580e-02,8.564023679479172e-04,-1.456164992485382e-09,8.561459946543922e-04,0.000000000000000e+00,0.000000000000000e+00,0.000000000000000e+00,9.999999999998001e+01,7.239313632308571e-15,0.000000000000000e+00,4.071129492342099e-03,0.000000000000000e+00,0.000000000000000e+00,9.910576011256421e-07,1.278000000000000e-09,4.680000000000000e+03,6.000000000000000e-01,1,9.840000271797180e-01,9.840000271797180e-01,0.000000000000000e+00,0.000000000000000e+00
1.916998171806045e-03,3.261499971371320e+02,2.293857310342041e-03,-1.277668400262418e-08,2.289726198169922e-03,-1.144032248966865e-02,8.502111304769526e-04,-1.581875162230018e-09,8.499553949616388e-04,0.000000000000000e+00,0.000000000000000e+00,0.000000000000000e+00,9.999999999997999e+01,6.786861586900033e-15,0.000000000000000e+00,4.071993650045441e-03,0.000000000000000e+00,0.000000000000000e+00,9.910990005926083e-07,1.278000000000000e-09,4.680000000000000e+03,6.000000000000000e-01,1,9.850000143051147e-01,9.850000143051147e-01,0.000000000000000e+00,0.000000000000000e+00
1.789199817180363e-03,3.259499997121757e+02,2.177580110541242e-03,-1.379203537363851e-08,2.173459300940381e-03,-1.145658739186150e-02,8.440198930059881e-04,-1.707585331974654e-09,8.437647952688856e-04,0.000000000000000e+00,0.000000000000000e+00,0.000000000000000e+00,9.999999999998002e+01,6.334409541491496e-15,0.000000000000000e+00,4.072857807748784e-03,0.000000000000000e+00,0.000000000000000e+00,9.911404000595747e-07,1.278000000000000e-09,4.680000000000000e+03,6.000000000000001e-01,1,9.860000014305115e-01,9.860000014305115e-01,0.000000000000000e+00,0.000000000000000e+00
1.661401462554680e-03,3.257500022872193e+02,2.061302910740443e-03,-1.480738674465284e-08,2.057192403710839e-03,-1.147285229405435e-02,8.378286555350235e-04,-1.833295501719289e-09,8.375741955761321e-04,0.000000000000000e+00,0.000000000000000e+00,0.000000000000000e+00,9.999999999998001e+01,5.881957496082957e-15,0.000000000000000e+00,4.073721965452125e-03,0.000000000000000e+00,0.000000000000000e+00,9.911817995265410e-07,1.278000000000000e-09,4.680000000000000e+03,6.000000000000000e-01,1,9.869999885559082e-01,9.869999885559082e-01,0.000000000000000e+00,0.000000000000000e+00
1.533603107928998e-03,3.255500048622630e+02,1.945025710939645e-03,-1.582273811566716e-08,1.940925506481297e-03,-1.148911719624720e-02,8.316374180640589e-04,-1.959005671463925e-09,8.313835958833789e-04,0.000000000000000e+00,0.000000000000000e+00,0.000000000000000e+00,9.999999999998001e+01,5.429505450674420e-15,0.000000000000000e+00,4.074586123155467e-03,0.000000000000000e+00,0.000000000000000e+00,9.912231989935074e-07,1.278000000000000e-09,4.680000000000000e+03,6.000000000000000e-01,1,9.879999756813049e-01,9.879999756813049e-01,0.000000000000000e+00,0.000000000000000e+00
1.405797135829713e-03,3.253499955163777e+02,1.828741580388426e-03,-1.683815000711846e-08,1.824651679115424e-03,-1.150538306791625e-02,8.254458115618331e-04,-2.084723334215043e-09,8.251926271973793e-04,0.000000000000000e+00,0.000000000000000e+00,0.000000000000000e+00,9.999999999998002e+01,4.977026436675227e-15,0.000000000000000e+00,4.075450332367285e-03,0.000000000000000e+00,0.000000000000000e+00,9.912646009281061e-07,1.278000000000000e-09,4.680000000000000e+03,6.000000000000000e-01,1,9.890000224113464e-01,9.890000224113464e-01,0.000000000000000e+00,0.000000000000000e+00
1.277998781204030e-03,3.251499980914214e+02,1.712464380587627e-03,-1.785350137813279e-08,1.708384781885882e-03,-1.152164797010910e-02,8.192545740908683e-04,-2.210433503959679e-09,8.190020275046258e-04,0.000000000000000e+00,0.000000000000000e+00,0.000000000000000e+00,9.999999999998001e+01,4.524574391266688e-15,0.000000000000000e+00,4.076314490070627e-03,0.000000000000000e+00,0.000000000000000e+00,9.913060003950722e-07,1.278000000000000e-09,4.680000000000000e+03,5.999999999999999e-01,1,9.900000095367432e-01,9.900000095367432e-01,0.000000000000000e+00,0.000000000000000e+00
1.150200426578348e-03,3.249500006664650e+02,1.596187180786828e-03,-1.886885274914711e-08,1.592117884656340e-03,-1.153791287230195e-02,8.130633366199038e-04,-2.336143673704314e-09,8.128114278118726e-04,0.000000000000000e+00,0.000000000000000e+00,0.000000000000000e+00,9.999999999998001e+01,4.072122345858150e-15,0.000000000000000e+00,4.077178647773970e-03,0.000000000000000e+00,0.000000000000000e+00,9.913473998620386e-07,1.278000000000000e-09,4.680000000000000e+03,6.000000000000000e-01,1,9.909999966621399e-01,9.909999966621399e-01,0.000000000000000e+00,0.000000000000000e+00
1.022402071952665e-03,3.247500032415087e+02,1.479909980986030e-03,-1.988420412016144e-08,1.475850987426798e-03,-1.155417777449480e-02,8.068720991489392e-04,-2.461853843448950e-09,8.066208281191194e-04,0.000000000000000e+00,0.000000000000000e+00,0.000000000000000e+00,9.999999999998002e+01,3.619670300449613e-15,0.000000000000000e+00,4.078042805477312e-03,0.000000000000000e+00,0.000000000000000e+00,9.913887993290050e-07,1.278000000000000e-09,4.680000000000000e+03,6.000000000000000e-01,1,9.919999837875366e-01,9.919999837875366e-01,0.000000000000000e+00,0.000000000000000e+00
8.946037173269825e-04,3.245500058165523e+02,1.363632781185231e-03,-2.089955549117577e-08,1.359584090197256e-03,-1.157044267668765e-02,8.006808616779748e-04,-2.587564013193586e-09,8.004302284263659e-04,0.000000000000000e+00,0.000000000000000e+00,0.000000000000000e+00,9.999999999998002e+01,3.167218255041075e-15,0.000000000000000e+00,4.078906963180653e-03,0.000000000000000e+00,0.000000000000000e+00,9.914301987959713e-07,1.278000000000000e-09,4.680000000000000e+03,6.000000000000000e-01,1,9.929999709129333e-01,9.929999709129333e-01,0.000000000000000e+00,0.000000000000000e+00
7.667977452276975e-04,3.243499964706670e+02,1.247348650634012e-03,-2.191496738262706e-08,1.243310262831383e-03,-1.158670854835670e-02,7.944892551757487e-04,-2.713281675944704e-09,7.942392597403662e-04,0.000000000000000e+00,0.000000000000000e+00,0.000000000000000e+00,9.999999999998001e+01,2.714739241041882e-15,0.000000000000000e+00,4.079771172392471e-03,0.000000000000000e+00,0.000000000000000e+00,9.914716007305698e-07,1.278000000000000e-09,4.680000000000000e+03,6.000000000000000e-01,1,9.940000176429749e-01,9.940000176429749e-01,0.000000000000000e+00,0.000000000000000e+00
6.389993906020149e-04,3.241499990457107e+02,1.131071450833213e-03,-2.293031875364140e-08,1.127043365601841e-03,-1.160297345054955e-02,7.882980177047841e-04,-2.838991845689339e-09,7.880486600476131e-04,0.000000000000000e+00,0.000000000000000e+00,0.000000000000000e+00,9.999999999998001e+01,2.262287195633344e-15,0.000000000000000e+00,4.080635330095814e-03,0.000000000000000e+00,0.000000000000000e+00,9.915130001975362e-07,1.278000000000000e-09,4.680000000000000e+03,6.000000000000000e-01,1,9.950000047683716e-01,9.950000047683716e-01,0.000000000000000e+00,0.000000000000000e+00
5.112010359763325e-04,3.239500016207543e+02,1.014794251032415e-03,-2.394567012465572e-08,1.010776468372299e-03,-1.161923835274240e-02,7.821067802338197e-04,-2.964702015433975e-09,7.818580603548596e-04,0.000000000000000e+00,0.000000000000000e+00,0.000000000000000e+00,9.999999999998001e+01,1.809835150224806e-15,0.000000000000000e+00,4.081499487799156e-03,0.000000000000000e+00,0.000000000000000e+00,9.915543996645025e-07,1.278000000000000e-09,4.680000000000000e+03,6.000000000000000e-01,1,9.959999918937683e-01,9.959999918937683e-01,0.000000000000000e+00,0.000000000000000e+00
3.834026813506499e-04,3.237500041957979e+02,8.985170512316161e-04,-2.496102149567005e-08,8.945095711427570e-04,-1.163550325493525e-02,7.759155427628550e-04,-3.090412185178611e-09,7.756674606621063e-04,0.000000000000000e+00,0.000000000000000e+00,0.000000000000000e+00,9.999999999998001e+01,1.357383104816268e-15,0.000000000000000e+00,4.082363645502497e-03,0.000000000000000e+00,0.000000000000000e+00,9.915957991314689e-07,1.278000000000000e-09,4.680000000000000e+03,6.000000000000000e-01,1,9.969999790191650e-01,9.969999790191650e-01,0.000000000000000e+00,0.000000000000000e+00
2.555967092513651e-04,3.235499948499127e+02,7.822329206803973e-04,-2.597643338712134e-08,7.782357437768838e-04,-1.165176912660430e-02,7.697239362606291e-04,-3.216129847929728e-09,7.694764919761067e-04,0.000000000000000e+00,0.000000000000000e+00,0.000000000000000e+00,9.999999999997999e+01,9.049040908170759e-16,0.000000000000000e+00,4.083227854714316e-03,0.000000000000000e+00,0.000000000000000e+00,9.916372010660674e-07,1.278000000000000e-09,4.680000000000000e+03,6.000000000000000e-01,1,9.980000257492065e-01,9.980000257492065e-01,0.000000000000000e+00,0.000000000000000e+00
1.277983546256826e-04,3.233499974249563e+02,6.659557208795986e-04,-2.699178475813567e-08,6.619688465473420e-04,-1.166803402879715e-02,7.635326987896646e-04,-3.341840017674364e-09,7.632858922833534e-04,0.000000000000000e+00,0.000000000000000e+00,0.000000000000000e+00,9.999999999998001e+01,4.524520454085380e-16,0.000000000000000e+00,4.084092012417658e-03,0.000000000000000e+00,0.000000000000000e+00,9.916786005330339e-07,1.278000000000000e-09,4.680000000000001e+03,6.000000000000000e-01,1,9.990000128746033e-01,9.990000128746033e-01,0.000000000000000e+00,0.000000000000000e+00
0.000000000000000e+00,3.231500000000000e+02,5.496785210788000e-04,-2.800713612915000e-08,5.457019493178000e-04,-1.168429893099000e-02,7.573414613187000e-04,-3.467550187419000e-09,7.570952925906000e-04,0.000000000000000e+00,0.000000000000000e+00,0.000000000000000e+00,9.999999999998001e+01,0.000000000000000e+00,0.000000000000000e+00,4.084956170121000e-03,0.000000000000000e+00,0.000000000000000e+00,9.917200000000001e-07,1.278000000000000e-09,4.680000000000000e+03,6.000000000000000e-01,1,1.000000000000000e+00,1.000000000000000e+00,0.000000000000000e+00,0.000000000000000e+00
