<VTKFile type="UnstructuredGrid" version="1.0" byte_order="LittleEndian" header_type="UInt64">
  <UnstructuredGrid>
    <Piece NumberOfPoints="4" NumberOfCells="1">
      <PointData Scalars="TEMPERATURE1">
        <DataArray type="Float64" Name="TEMPERATURE1" format="ascii" RangeMin="363.15" RangeMax="363.15">
          363.15 363.15 363.15 363.15
        </DataArray>
        <DataArray type="Float64" Name="PRESSURE1" format="ascii" RangeMin="0" RangeMax="0.10416417448">
          0.10416417448 0.10416417448 0.10416417448 0.10416417448 0 0 0 0
        </DataArray>
        <DataArray type="Float64" Name="STRESS_XX" format="ascii" RangeMin="0.10416282564" RangeMax="0.10416509806">
          0.10416282564 0.10416405638 0.10416409281 0.10416509806 0.10416282564 0.10416405638 0.10416409281 0.10416509806
        </DataArray>
        <DataArray type="Float64" Name="STRESS_XY" format="ascii" RangeMin="-6.3701248369e-07" RangeMax="-5.2016286579e-08">
          -5.2016286579e-08 -6.3701248369e-07 -1.598121143e-07 -3.9087475087e-07
        </DataArray>
        <DataArray type="Float64" Name="STRESS_YY" format="ascii" RangeMin="0.10416282564" RangeMax="0.10416509806">
          0.10416282564 0.10416409302 0.10416443762 0.10416509806
        </DataArray>
        <DataArray type="Float64" Name="STRESS_ZZ" format="ascii" RangeMin="0.10414831815" RangeMax="0.10416409205">
          0.10414831815 0.10415147076 0.10416409205 0.10416379411
        </DataArray>
        <DataArray type="Float64" Name="STRAIN_XX" format="ascii" RangeMin="0.0025440730433" RangeMax="0.0025442610716">
          0.0025442610716 0.0025442565358 0.0025440730433 0.0025441157338
        </DataArray>
        <DataArray type="Float64" Name="STRAIN_XY" format="ascii" RangeMin="-7.8868212266e-08" RangeMax="-6.4401116717e-09">
          -6.4401116717e-09 -7.8868212266e-08 -1.978626177e-08 -4.8394016774e-08
        </DataArray>
        <DataArray type="Float64" Name="STRAIN_YY" format="ascii" RangeMin="0.0025440943886" RangeMax="0.0025442610716">
          0.0025442610716 0.0025442588037 0.0025440943886 0.0025441157338
        </DataArray>
        <DataArray type="Float64" Name="STRAIN_ZZ" format="ascii" RangeMin="0.0025433629887" RangeMax="0.0025440729963">
          0.0025433629887 0.0025434774255 0.0025440729963 0.0025440350131
        </DataArray>
        <DataArray type="Float64" Name="NODAL_VELOCITY1" NumberOfComponents="3" format="ascii" RangeMin="1.5515838458e-14" RangeMax="2.7971575571e-14">
          6.9388939039e-15 -1.3877787808e-14 0 -2.4286128664e-14 -1.3877787808e-14 0
          6.9388939039e-15 -1.3877787808e-14 0 -2.4286128664e-14 -1.3877787808e-14 0
        </DataArray>
        <DataArray type="Float64" Name="DISPLACEMENT" NumberOfComponents="3" format="ascii" RangeMin="0" RangeMax="0.0035976706741">
          0 0 0.0025442527179 0 0 0.0025442527179
          0.0025442527179 0.0025442527179 0.00127212 0 0 0.00127212
          0.0025442527179 0.00127212 0.00127212 0.0025442527179
        </DataArray>
      </PointData>
      <CellData>
      </CellData>
      <Points>
        <DataArray type="Float64" Name="Points" NumberOfComponents="3" format="ascii" RangeMin="0" RangeMax="1.4142135624">
          0 0 0 1 0 0
          1 1 0 0 1 0
        </DataArray>
      </Points>
      <Cells>
        <DataArray type="Int64" Name="connectivity" format="ascii" RangeMin="0" RangeMax="3">
          0 1 2 3
        </DataArray>
        <DataArray type="Int64" Name="offsets" format="ascii" RangeMin="4" RangeMax="4">
          4
        </DataArray>
        <DataArray type="UInt8" Name="types" format="ascii" RangeMin="9" RangeMax="9">
          9
        </DataArray>
      </Cells>
    </Piece>
  </UnstructuredGrid>
</VTKFile>
